NAME: Perylene_2H12
SCANNUMBER: -1
RETENTIONTIME: -1
RETENTIONINDEX: 2876
PRECURSORMZ: 264.16858
PRECURSORTYPE: [M]+
IONMODE: Positive
SPECTRUMTYPE: Centroid
FORMULA: C20H12
INCHIKEY: CSHWQDPOILHKBI-AQZSQYOVSA-N
INCHI: 
SMILES: [2H]C1=C(C2=C3C(=C1[2H])C4=C(C(=C(C5=C4C(=C(C(=C5[2H])[2H])[2H])C3=C(C(=C2[2H])[2H])[2H])[2H])[2H])[2H])[2H]
AUTHORS: Price et al., RECETOX, Masaryk University (CZ)
COLLISIONENERGY: 70eV
INSTRUMENT: Q Exactive GC Orbitrap GC-MS/MS
INSTRUMENTTYPE: GC-EI-Orbitrap
IONIZATION: EI+
LICENSE: CC BY-NC
COMMENT: 
Num Peaks: 33
116.05576	29277
118.06992	49651
128.0558	37001
130.06996	78584
130.57159	17533
132.08408	65686
132.5858	12593
207.0322	39569
222.08282	13141
223.06346	20762
225.04277	18058
227.02202	26370
232.11204	30354
236.1405	22796
252.09322	8564
256.11212	41765
257.11557	8688
258.12622	21742
259.13446	11564
260.14041	248997
261.14358	51721
262.15466	33597
263.16254	63732
264.16858	829577
265.01968	18286
265.17191	176460
266.17523	18876
283.03036	10261
287.00632	11352
295.10288	26727
299.06152	33379
359.0282	67046
400.98447	17406

NAME: Perylene
SCANNUMBER: -1
RETENTIONTIME: -1
RETENTIONINDEX: 2886.9
PRECURSORMZ: 252.09323
PRECURSORTYPE: [M]+
IONMODE: Positive
SPECTRUMTYPE: Centroid
FORMULA: C20H12
INCHIKEY: CSHWQDPOILHKBI-UHFFFAOYSA-N
INCHI: 
SMILES: C1=CC2=C3C(=C1)C1=CC=CC4=C1C(=CC=C4)C3=CC=C2
AUTHORS: Price et al., RECETOX, Masaryk University (CZ)
COLLISIONENERGY: 70eV
INSTRUMENT: Q Exactive GC Orbitrap GC-MS/MS
INSTRUMENTTYPE: GC-EI-Orbitrap
IONIZATION: EI+
LICENSE: CC BY-NC
COMMENT: 
Num Peaks: 19
112.03071	49892
113.03854	87510	"Theoretical m/z 113.039125, Mass diff 0 (0 ppm), Formula C9H5"
124.03076	100146
124.53242	24923
125.03855	179254	"Theoretical m/z 125.039125, Mass diff 0 (0 ppm), Formula C10H5"
125.54019	49039
126.04636	131679
126.54804	36313
222.04645	28905
224.06192	55632
226.04175	37413
246.04646	23286
248.06204	140007
249.07072	62236	"Theoretical m/z 249.070425, Mass diff -0.001 (0 ppm), Formula C20H9"
250.07765	641789
251.07967	137600
252.09323	1955166	"Theoretical m/z 252.093354, Mass diff 0 (0.49 ppm), SMILES C1=CC=2C=CC=C3C4=CC=CC5=CC=CC(C(=C1)C23)=C54, Annotation [C20H12]+, Rule of HR False"
253.09656	402252
254.09985	39987

NAME: Phenanthrene_2H10
SCANNUMBER: -1
RETENTIONTIME: -1
RETENTIONINDEX: 1827.1
PRECURSORMZ: 188.14029
PRECURSORTYPE: [M]+
IONMODE: Positive
SPECTRUMTYPE: Centroid
FORMULA: C14H10
INCHIKEY: YNPNZTXNASCQKK-LHNTUAQVSA-N
INCHI: 
SMILES: [2H]C1=C(C(=C2C(=C1[2H])C(=C(C3=C(C(=C(C(=C32)[2H])[2H])[2H])[2H])[2H])[2H])[2H])[2H]
AUTHORS: Price et al., RECETOX, Masaryk University (CZ)
COLLISIONENERGY: 70eV
INSTRUMENT: Q Exactive GC Orbitrap GC-MS/MS
INSTRUMENTTYPE: GC-EI-Orbitrap
IONIZATION: EI+
LICENSE: CC BY-NC
COMMENT: 
Num Peaks: 17
76.02767	185421
78.0418	256858
80.05586	881271
90.04181	200162
92.06206	537968
94.06999	628791
156.08402	836513
158.09808	477819
160.11218	2421148
161.11554	310248
176.10866	308983
184.11224	2784543
185.11562	445833
186.12637	1283282
188.14029	15115275
189.1436	2312386
190.14688	151400

