NAME: FT-thioether; C10H18F3NO4S2
PRECURSORMZ: 336.055659177
PRECURSORTYPE: [M-H]-
IONMODE: Negative
FORMULA: C10H18F3NO4S2
SMILES: O=C(NC(C)(C)CS(=O)(=O)O)CCSCCC(F)(F)F
INCHIKEY: DLTHJDKHDLWLAE-UHFFFAOYSA-N
RETENTIONTIME: 556.9
CCS: 
ONTOLOGY: PFSA
COMMENT: FT-thioether
Num Peaks: 4
135.012	1000
152.039	1000
206.049	1000
336.056	1000

NAME: FT-thioether; C11H18F5NO4S2
PRECURSORMZ: 386.052465617
PRECURSORTYPE: [M-H]-
IONMODE: Negative
FORMULA: C11H18F5NO4S2
SMILES: O=C(NC(C)(C)CS(=O)(=O)O)CCSCCC(F)(F)C(F)(F)F
INCHIKEY: NFSFEPNLUWBEDN-UHFFFAOYSA-N
RETENTIONTIME: 80.2
CCS: 
ONTOLOGY: PFSA
COMMENT: FT-thioether
Num Peaks: 4
135.012	1000
152.039	1000
206.049	1000
386.052	1000

NAME: FT-thioether; C12H18F7NO4S2
PRECURSORMZ: 436.049272057
PRECURSORTYPE: [M-H]-
IONMODE: Negative
FORMULA: C12H18F7NO4S2
SMILES: O=C(NC(C)(C)CS(=O)(=O)O)CCSCCC(F)(F)C(F)(F)C(F)(F)F
INCHIKEY: TUKWMSPJOXGNKX-UHFFFAOYSA-N
RETENTIONTIME: 127.8
CCS: 
ONTOLOGY: PFSA
COMMENT: FT-thioether
Num Peaks: 4
135.012	1000
152.039	1000
206.049	1000
436.049	1000
