NAME: FT-thioether; C10H18F3NO4S2
PRECURSORMZ: 336.055659177
PRECURSORTYPE: [M-H]-
IONMODE: Negative
FORMULA: C10H18F3NO4S2
SMILES: O=C(NC(C)(C)CS(=O)(=O)O)CCSCCC(F)(F)F
INCHIKEY: DLTHJDKHDLWLAE-UHFFFAOYSA-N
RETENTIONTIME: 
CCS: 
ONTOLOGY: PFSA
COMMENT: FT-thioether
Num Peaks: 4
135.012	1000
152.039	1000
206.049	1000
336.056	1000

NAME: FT-thioether; C11H18F5NO4S2
PRECURSORMZ: 386.052465617
PRECURSORTYPE: [M-H]-
IONMODE: Negative
FORMULA: C11H18F5NO4S2
SMILES: O=C(NC(C)(C)CS(=O)(=O)O)CCSCCC(F)(F)C(F)(F)F
INCHIKEY: NFSFEPNLUWBEDN-UHFFFAOYSA-N
RETENTIONTIME: 
CCS: 
ONTOLOGY: PFSA
COMMENT: FT-thioether
Num Peaks: 4
135.012	1000
152.039	1000
206.049	1000
386.052	1000

NAME: FT-thioether; C12H18F7NO4S2
PRECURSORMZ: 436.049272057
PRECURSORTYPE: [M-H]-
IONMODE: Negative
FORMULA: C12H18F7NO4S2
SMILES: O=C(NC(C)(C)CS(=O)(=O)O)CCSCCC(F)(F)C(F)(F)C(F)(F)F
INCHIKEY: TUKWMSPJOXGNKX-UHFFFAOYSA-N
RETENTIONTIME: 
CCS: 
ONTOLOGY: PFSA
COMMENT: FT-thioether
Num Peaks: 4
135.012	1000
152.039	1000
206.049	1000
436.049	1000

NAME: PFSM-ammonio; [C14H26F7N2O8S3]+
PRECURSORMZ: 578.066675559
PRECURSORTYPE: [M-H]-
IONMODE: Negative
FORMULA: [C14H26F7N2O8S3]+
SMILES: O=S(=O)(O)CCCN(CCC[N+](C)(C)CCCS(=O)(=O)O)S(=O)(=O)C(F)(F)C(F)(F)C(F)(F)F
INCHIKEY: LRXMWUGTUSKIRI-UHFFFAOYSA-O
RETENTIONTIME: 
CCS: 
ONTOLOGY: PFSA
COMMENT: PFSM-ammonio
Num Peaks: 7
58.066	1000
118.993	1000
168.989	1000
183.061	1000
318.98	1000
483.042	1000
578.067	1000

NAME: PFSM-ammonio; [C15H26F9N2O8S3]+
PRECURSORMZ: 628.063481999
PRECURSORTYPE: [M-H]-
IONMODE: Negative
FORMULA: [C15H26F9N2O8S3]+
SMILES: O=S(=O)(O)CCCN(CCC[N+](C)(C)CCCS(=O)(=O)O)S(=O)(=O)C(F)(F)C(F)(F)C(F)(F)C(F)(F)F
INCHIKEY: SLCJWMLFYWRTEQ-UHFFFAOYSA-O
RETENTIONTIME: 
CCS: 
ONTOLOGY: PFSA
COMMENT: PFSM-ammonio
Num Peaks: 8
58.066	1000
118.993	1000
168.989	1000
183.061	1000
318.98	1000
483.042	1000
605.046	1000
628.063	1000

NAME: PFSM-ammonio; [C16H26F11N2O8S3]+
PRECURSORMZ: 678.060288439
PRECURSORTYPE: [M-H]-
IONMODE: Negative
FORMULA: [C16H26F11N2O8S3]+
SMILES: O=S(=O)(O)CCCN(CCC[N+](C)(C)CCCS(=O)(=O)O)S(=O)(=O)C(F)(F)C(F)(F)C(F)(F)C(F)(F)C(F)(F)F
INCHIKEY: FCYIOXJRCMYMIW-UHFFFAOYSA-O
RETENTIONTIME: 
CCS: 
ONTOLOGY: PFSA
COMMENT: PFSM-ammonio
Num Peaks: 8
58.066	1000
118.993	1000
168.989	1000
183.061	1000
318.98	1000
483.042	1000
605.046	1000
678.06	1000

NAME: PFSM-ammonio; [C17H26F13N2O8S3]+
PRECURSORMZ: 728.057094879
PRECURSORTYPE: [M-H]-
IONMODE: Negative
FORMULA: [C17H26F13N2O8S3]+
SMILES: O=S(=O)(O)CCCN(CCC[N+](C)(C)CCCS(=O)(=O)O)S(=O)(=O)C(F)(F)C(F)(F)C(F)(F)C(F)(F)C(F)(F)C(F)(F)F
INCHIKEY: XJWXHAVPVAKYGX-UHFFFAOYSA-O
RETENTIONTIME: 
CCS: 
ONTOLOGY: PFSA
COMMENT: PFSM-ammonio
Num Peaks: 8
58.066	1000
118.993	1000
168.989	1000
183.061	1000
318.98	1000
483.042	1000
605.046	1000
728.057	1000

NAME: PFSM-ammonio; [C18H26F15N2O8S3]+
PRECURSORMZ: 778.053901319
PRECURSORTYPE: [M-H]-
IONMODE: Negative
FORMULA: [C18H26F15N2O8S3]+
SMILES: O=S(=O)(O)CCCN(CCC[N+](C)(C)CCCS(=O)(=O)O)S(=O)(=O)C(F)(F)C(F)(F)C(F)(F)C(F)(F)C(F)(F)C(F)(F)C(F)(F)F
INCHIKEY: QXAJUGIKMOXNDF-UHFFFAOYSA-O
RETENTIONTIME: 
CCS: 
ONTOLOGY: PFSA
COMMENT: PFSM-ammonio
Num Peaks: 8
58.066	1000
118.993	1000
168.989	1000
183.061	1000
318.98	1000
483.042	1000
605.046	1000
778.054	1000

NAME: PFSM-ammonio; [C19H26F17N2O8S3]+
PRECURSORMZ: 828.050707759
PRECURSORTYPE: [M-H]-
IONMODE: Negative
FORMULA: [C19H26F17N2O8S3]+
SMILES: O=S(=O)(O)CCCN(CCC[N+](C)(C)CCCS(=O)(=O)O)S(=O)(=O)C(F)(F)C(F)(F)C(F)(F)C(F)(F)C(F)(F)C(F)(F)C(F)(F)C(F)(F)F
INCHIKEY: FHWPTNWVEZCJTE-UHFFFAOYSA-O
RETENTIONTIME: 
CCS: 
ONTOLOGY: PFSA
COMMENT: PFSM-ammonio
Num Peaks: 8
58.066	1000
118.993	1000
168.989	1000
183.061	1000
318.98	1000
483.042	1000
605.046	1000
828.051	1000

NAME: PFSM-ammonio; [C20H26F19N2O8S3]+
PRECURSORMZ: 878.047514199
PRECURSORTYPE: [M-H]-
IONMODE: Negative
FORMULA: [C20H26F19N2O8S3]+
SMILES: O=S(=O)(O)CCCN(CCC[N+](C)(C)CCCS(=O)(=O)O)S(=O)(=O)C(F)(F)C(F)(F)C(F)(F)C(F)(F)C(F)(F)C(F)(F)C(F)(F)C(F)(F)C(F)(F)F
INCHIKEY: WSDJHLBILQFQCK-UHFFFAOYSA-O
RETENTIONTIME: 
CCS: 
ONTOLOGY: PFSA
COMMENT: PFSM-ammonio
Num Peaks: 8
58.066	1000
118.993	1000
168.989	1000
183.061	1000
318.98	1000
483.042	1000
605.046	1000
878.047	1000

NAME: PFSM-ammonio; [C21H26F21N2O8S3]+
PRECURSORMZ: 928.044320639
PRECURSORTYPE: [M-H]-
IONMODE: Negative
FORMULA: [C21H26F21N2O8S3]+
SMILES: O=S(=O)(O)CCCN(CCC[N+](C)(C)CCCS(=O)(=O)O)S(=O)(=O)
CCS: 
ONTOLOGY: PFSA
COMMENT: PFSA-perfluoroalkyl
Num Peaks: 7
79.957	1000
82.961	1000
84.991	1000
98.956	1000
118.993	1000
168.989	1000
598.924	1000

NAME: Perfluoroundecanesulfonic acid
PRECURSORMZ: 648.9206387
PRECURSORTYPE: [M-H]-
IONMODE: Negative
FORMULA: C11HF23O3S
SMILES: O=S(=O)(O)C(F)(F)C(F)(F)C(F)(F)C(F)(F)C(F)(F)C(F)(F)C(F)(F)C(F)(F)C(F)(F)C(F)(F)C(F)(F)F
INCHIKEY: UKHUPOMCGUFNAP-UHFFFAOYSA-N
RETENTIONTIME: 
CCS: 
ONTOLOGY: PFSA
COMMENT: PFSA-perfluoroalkyl
Num Peaks: 7
79.957	1000
82.961	1000
84.991	1000
98.956	1000
118.993	1000
168.989	1000
648.921	1000

NAME: Perfluorododecanesulfonic acid
PRECURSORMZ: 698.9174451
PRECURSORTYPE: [M-H]-
IONMODE: Negative
FORMULA: C12HF25O3S
SMILES: O=S(=O)(O)C(F)(F)C(F)(F)C(F)(F)C(F)(F)C(F)(F)C(F)(F)C(F)(F)C(F)(F)C(F)(F)C(F)(F)C(F)(F)C(F)(F)F
INCHIKEY: CFCRODHVHXGTPC-UHFFFAOYSA-N
RETENTIONTIME: 
CCS: 
ONTOLOGY: PFSA
COMMENT: PFSA-perfluoroalkyl
Num Peaks: 7
79.957	1000
82.961	1000
84.991	1000
98.956	1000
118.993	1000
168.989	1000
698.917	1000

NAME: Perfluorotridecanesulfonic acid
PRECURSORMZ: 748.9142515
PRECURSORTYPE: [M-H]-
IONMODE: Negative
FORMULA: C13HF27O3S
SMILES: O=S(=O)(O)C(F)(F)C(F)(F)C(F)(F)C(F)(F)C(F)(F)C(F)(F)C(F)(F)C(F)(F)C(F)(F)C(F)(F)C(F)(F)C(F)(F)C(F)(F)F
INCHIKEY: JMIXTHMPTMXARZ-UHFFFAOYSA-N
RETENTIONTIME: 
CCS: 
ONTOLOGY: PFSA
COMMENT: PFSA-perfluoroalkyl
Num Peaks: 7
79.957	1000
82.961	1000
84.991	1000
98.956	1000
118.993	1000
168.989	1000
748.914	1000

NAME: Perfluorotetradecanesulfonic acid
PRECURSORMZ: 798.911058
PRECURSORTYPE: [M-H]-
IONMODE: Negative
FORMULA: C14HF29O3S
SMILES: O=S(=O)(O)C(F)(F)C(F)(F)C(F)(F)C(F)(F)C(F)(F)C(F)(F)C(F)(F)C(F)(F)C(F)(F)C(F)(F)C(F)(F)C(F)(F)C(F)(F)C(F)(F)F
INCHIKEY: APTHHQMMNKGQCK-UHFFFAOYSA-N
RETENTIONTIME: 
CCS: 
ONTOLOGY: PFSA
COMMENT: PFSA-perfluoroalkyl
Num Peaks: 7
79.957	1000
82.961	1000
84.991	1000
98.956	1000
118.993	1000
168.989	1000
798.911	1000

NAME: Perfluoropentadecanesulfonic acid
PRECURSORMZ: 848.9078644
PRECURSORTYPE: [M-H]-
IONMODE: Negative
FORMULA: C15HF31O3S
SMILES: O=S(=O)(O)C(F)(F)C(F)(F)C(F)(F)C(F)(F)C(F)(F)C(F)(F)C(F)(F)C(F)(F)C(F)(F)C(F)(F)C(F)(F)C(F)(F)C(F)(F)C(F)(F)C(F)(F)F
INCHIKEY: XEMFUSUHNOPSDA-UHFFFAOYSA-N
RETENTIONTIME: 
CCS: 
ONTOLOGY: PFSA
COMMENT: PFSA-perfluoroalkyl
Num Peaks: 7
79.957	1000
82.961	1000
84.991	1000
98.956	1000
118.993	1000
168.989	1000
848.908	1000

NAME: Perfluorohexadecanesulfonic acid
PRECURSORMZ: 898.9046709
PRECURSORTYPE: [M-H]-
IONMODE: Negative
FORMULA: C16HF33O3S
SMILES: O=S(=O)(O)C(F)(F)C(F)(F)C(F)(F)C(F)(F)C(F)(F)C(F)(F)C(F)(F)C(F)(F)C(F)(F)C(F)(F)C(F)(F)C(F)(F)C(F)(F)C(F)(F)C(F)(F)C(F)(F)F
INCHIKEY: QFAIDPCBDQJRJD-UHFFFAOYSA-N
RETENTIONTIME: 
CCS: 
ONTOLOGY: PFSA
COMMENT: PFSA-perfluoroalkyl
Num Peaks: 7
79.957	1000
82.961	1000
84.991	1000
98.956	1000
118.993	1000
168.989	1000
898.905	1000

NAME: Perfluoroheptadecanesulfonic acid
PRECURSORMZ: 948.9014773
PRECURSORTYPE: [M-H]-
IONMODE: Negative
FORMULA: C17HF35O3S
SMILES: O=S(=O)(O)C(F)(F)C(F)(F)C(F)(F)C(F)(F)C(F)(F)C(F)(F)C(F)(F)C(F)(F)C(F)(F)C(F)(F)C(F)(F)C(F)(F)C(F)(F)C(F)(F)C(F)(F)C(F)(F)C(F)(F)F
INCHIKEY: WQKGMZXDKPCQCK-UHFFFAOYSA-N
RETENTIONTIME: 
CCS: 
ONTOLOGY: PFSA
COMMENT: PFSA-perfluoroalkyl
Num Peaks: 7
79.957	1000
82.961	1000
84.991	1000
98.956	1000
118.993	1000
168.989	1000
948.901	1000

NAME: Perfluorooctadecanesulfonic acid
PRECURSORMZ: 998.8982837
PRECURSORTYPE: [M-H]-
IONMODE: Negative
FORMULA: C18HF37O3S
SMILES: O=S(=O)(O)C(F)(F)C(F)(F)C(F)(F)C(F)(F)C(F)(F)C(F)(F)C(F)(F)C(F)(F)C(F)(F)C(F)(F)C(F)(F)C(F)(F)C(F)(F)C(F)(F)C(F)(F)C(F)(F)C(F)(F)C(F)(F)F
INCHIKEY: RBCFKLHQNQUYFE-UHFFFAOYSA-N
RETENTIONTIME: 
CCS: 
ONTOLOGY: PFSA
COMMENT: PFSA-perfluoroalkyl
Num Peaks: 7
79.957	1000
82.961	1000
84.991	1000
98.956	1000
118.993	1000
168.989	1000
998.898	1000

NAME: Perfluorononadecanesulfonic acid
PRECURSORMZ: 1048.89509
PRECURSORTYPE: [M-H]-
IONMODE: Negative
FORMULA: C19HF39O3S
SMILES: O=S(=O)(O)C(F)(F)C(F)(F)C(F)(F)C(F)(F)C(F)(F)C(F)(F)C(F)(F)C(F)(F)C(F)(F)C(F)(F)C(F)(F)C(F)(F)C(F)(F)C(F)(F)C(F)(F)C(F)(F)C(F)(F)C(F)(F)C(F)(F)F
INCHIKEY: ACJWHIFZYFKOCK-UHFFFAOYSA-N
RETENTIONTIME: 
CCS: 
ONTOLOGY: PFSA
COMMENT: PFSA-perfluoroalkyl
Num Peaks: 7
79.957	1000
82.961	1000
84.991	1000
98.956	1000
118.993	1000
168.989	1000
1048.895	1000

NAME: Perfluoroeicosanesulfonic acid
PRECURSORMZ: 1098.891897
PRECURSORTYPE: [M-H]-
IONMODE: Negative
FORMULA: C20HF41O3S
SMILES: O=S(=O)(O)C(F)(F)C(F)(F)C(F)(F)C(F)(F)C(F)(F)C(F)(F)C(F)(F)C(F)(F)C(F)(F)C(F)(F)C(F)(F)C(F)(F)C(F)(F)C(F)(F)C(F)(F)C(F)(F)C(F)(F)C(F)(F)C(F)(F)C(F)(F)F
INCHIKEY: SEGPROHAPJDDJW-UHFFFAOYSA-N
RETENTIONTIME: 
CCS: 
ONTOLOGY: PFSA
COMMENT: PFSA-perfluoroalkyl
Num Peaks: 7
79.957	1000
82.961	1000
84.991	1000
98.956	1000
118.993	1000
168.989	1000
1098.892	1000

NAME: PFSM-carboxylic_acid; C4H6F3NO4S
PRECURSORMZ: 219.989688057
PRECURSORTYPE: [M-H]-
IONMODE: Negative
FORMULA: C4H6F3NO4S
SMILES: O=C(O)CN(C)S(=O)(=O)C(F)(F)F
INCHIKEY: YHAYRKGGBCCPEW-UHFFFAOYSA-N
RETENTIONTIME: 
CCS: 
ONTOLOGY: PFSA
COMMENT: PFSM-carboxylic_acid
Num Peaks: 2
218.986	1000
219.99	1000

NAME: PFSM-carboxylic_acid; C5H6F5NO4S
PRECURSORMZ: 269.986494497
PRECURSORTYPE: [M-H]-
IONMODE: Negative
FORMULA: C5H6F5NO4S
SMILES: O=C(O)CN(C)S(=O)(=O)C(F)(F)C(F)(F)F
INCHIKEY: FXKAFEFAPQFHKH-UHFFFAOYSA-N
RETENTIONTIME: 
CCS: 
ONTOLOGY: PFSA
COMMENT: PFSM-carboxylic_acid
Num Peaks: 2
218.986	1000
269.986	1000

NAME: PFSM-carboxylic_acid; C6H6F7NO4S
PRECURSORMZ: 319.983300937
PRECURSORTYPE: [M-H]-
IONMODE: Negative
FORMULA: C6H6F7NO4S
SMILES: O=C(O)CN(C)S(=O)(=O)C(F)(F)C(F)(F)C(F)(F)F
INCHIKEY: QXQNEIFHTSUFRH-UHFFFAOYSA-N
RETENTIONTIME: 
CCS: 
ONTOLOGY: PFSA
COMMENT: PFSM-carboxylic_acid
Num Peaks: 4
218.986	1000
282.948	1000
311.975	1000
319.983	1000

NAME: PFSM-carboxylic_acid; C7H6F9NO4S
PRECURSORMZ: 369.980107377
PRECURSORTYPE: [M-H]-
IONMODE: Negative
FORMULA: C7H6F9NO4S
SMILES: O=C(O)CN(C)S(=O)(=O)C(F)(F)C(F)(F)C(F)(F)C(F)(F)F
INCHIKEY: SKGBGOQHXBAKKO-UHFFFAOYSA-N
RETENTIONTIME: 
CCS: 
ONTOLOGY: PFSA
COMMENT: PFSM-carboxylic_acid
Num Peaks: 4
218.986	1000
282.948	1000
311.975	1000
369.98	1000

NAME: PFSM-carboxylic_acid; C8H6F11NO4S
PRECURSORMZ: 419.976913817
PRECURSORTYPE: [M-H]-
IONMODE: Negative
FORMULA: C8H6F11NO4S
SMILES: O=C(O)CN(C)S(=O)(=O)C(F)(F)C(F)(F)C(F)(F)C(F)(F)C(F)(F)F
INCHIKEY: PCJKVWPGABCQGW-UHFFFAOYSA-N
RETENTIONTIME: 
CCS: 
ONTOLOGY: PFSA
COMMENT: PFSM-carboxylic_acid
Num Peaks: 4
218.986	1000
282.948	1000
311.975	1000
419.977	1000

NAME: PFSM-carboxylic_acid; C9H6F13NO4S
PRECURSORMZ: 469.973720257
PRECURSORTYPE: [M-H]-
IONMODE: Negative
FORMULA: C9H6F13NO4S
SMILES: O=C(O)CN(C)S(=O)(=O)C(F)(F)C(F)(F)C(F)(F)C(F)(F)C(F)(F)C(F)(F)F
INCHIKEY: YGKAWLSSJSOXNM-UHFFFAOYSA-N
RETENTIONTIME: 
CCS: 
ONTOLOGY: PFSA
COMMENT: PFSM-carboxylic_acid
Num Peaks: 4
218.986	1000
282.948	1000
311.975	1000
469.974	1000

NAME: PFSM-carboxylic_acid; C10H6F15NO4S
PRECURSORMZ: 519.970526697
PRECURSORTYPE: [M-H]-
IONMODE: Negative
FORMULA: C10H6F15NO4S
SMILES: O=C(O)CN(C)S(=O)(=O)C(F)(F)C(F)(F)C(F)(F)C(F)(F)C(F)(F)C(F)(F)C(F)(F)F
INCHIKEY: LPJOBWYEYHXLOK-UHFFFAOYSA-N
RETENTIONTIME: 
CCS: 
ONTOLOGY: PFSA
COMMENT: PFSM-carboxylic_acid
Num Peaks: 4
218.986	1000
282.948	1000
311.975	1000
519.971	1000

NAME: 2-(N-Methylperfluorooctanesulfonamido)acetic acid
PRECURSORMZ: 569.967333137
PRECURSORTYPE: [M-H]-
IONMODE: Negative
FORMULA: C11H6F17NO4S
SMILES: O=C(O)CN(C)S(=O)(=O)C(F)(F)C(F)(F)C(F)(F)C(F)(F)C(F)(F)C(F)(F)C(F)(F)C(F)(F)F
INCHIKEY: QNDHIRFIMVNHBN-UHFFFAOYSA-N
RETENTIONTIME: 
CCS: 181.9545852
ONTOLOGY: PFSA
COMMENT: PFSM-carboxylic_acid
Num Peaks: 4
218.986	1000
282.948	1000
311.975	1000
569.967	1000

NAME: PFSM-carboxylic_acid; C12H6F19NO4S
PRECURSORMZ: 619.964139577
PRECURSORTYPE: [M-H]-
IONMODE: Negative
FORMULA: C12H6F19NO4S
SMILES: O=C(O)CN(C)S(=O)(=O)C(F)(F)C(F)(F)C(F)(F)C(F)(F)C(F)(F)C(F)(F)C(F)(F)C(F)(F)C(F)(F)F
INCHIKEY: IWYNBPGKWRUYSA-UHFFFAOYSA-N
RETENTIONTIME: 
CCS: 
ONTOLOGY: PFSA
COMMENT: PFSM-carboxylic_acid
Num Peaks: 4
218.986	1000
282.948	1000
311.975	1000
619.964	1000

NAME: PFSM-carboxylic_acid; C13H6F21NO4S
PRECURSORMZ: 669.960946017
PRECURSORTYPE: [M-H]-
IONMODE: Negative
FORMULA: C13H6F21NO4S
SMILES: O=C(O)CN(C)S(=O)(=O)C(F)(F)C(F)(F)C(F)(F)C(F)(F)C(F)(F)C(F)(F)C(F)(F)C(F)(F)C(F)(F)C(F)(F)F
INCHIKEY: YMUUIGFOSCRZFV-UHFFFAOYSA-N
RETENTIONTIME: 
CCS: 
ONTOLOGY: PFSA
COMMENT: PFSM-carboxylic_acid
Num Peaks: 4
218.986	1000
282.948	1000
311.975	1000
669.961	1000

NAME: PFSM-carboxylic_acid; C14H6F23NO4S
PRECURSORMZ: 719.957752457
PRECURSORTYPE: [M-H]-
IONMODE: Negative
FORMULA: C14H6F23NO4S
SMILES: O=C(O)CN(C)S(=O)(=O)C(F)(F)C(F)(F)C(F)(F)C(F)(F)C(F)(F)C(F)(F)C(F)(F)C(F)(F)C(F)(F)C(F)(F)C(F)(F)F
INCHIKEY: YQVRFVXHDHXACO-UHFFFAOYSA-N
RETENTIONTIME: 
CCS: 
ONTOLOGY: PFSA
COMMENT: PFSM-carboxylic_acid
Num Peaks: 4
218.986	1000
282.948	1000
311.975	1000
719.958	1000

NAME: PFSM-carboxylic_acid; C15H6F25NO4S
PRECURSORMZ: 769.954558897
PRECURSORTYPE: [M-H]-
IONMODE: Negative
FORMULA: C15H6F25NO4S
SMILES: O=C(O)CN(C)S(=O)(=O)C(F)(F)C(F)(F)C(F)(F)C(F)(F)C(F)(F)C(F)(F)C(F)(F)C(F)(F)C(F)(F)C(F)(F)C(F)(F)C(F)(F)F
INCHIKEY: GGPKKKKGXGUWFV-UHFFFAOYSA-N
RETENTIONTIME: 
CCS: 
ONTOLOGY: PFSA
COMMENT: PFSM-carboxylic_acid
Num Peaks: 4
218.986	1000
282.948	1000
311.975	1000
769.955	1000

NAME: PFSM-carboxylic_acid; C16H6F27NO4S
PRECURSORMZ: 819.951365337
PRECURSORTYPE: [M-H]-
IONMODE: Negative
FORMULA: C16H6F27NO4S
SMILES: O=C(O)CN(C)S(=O)(=O)C(F)(F)C(F)(F)C(F)(F)C(F)(F)C(F)(F)C(F)(F)C(F)(F)C(F)(F)C(F)(F)C(F)(F)C(F)(F)C(F)(F)C(F)(F)F
INCHIKEY: SWBSZXAYQAUPHJ-UHFFFAOYSA-N
RETENTIONTIME: 
CCS: 
ONTOLOGY: PFSA
COMMENT: PFSM-carboxylic_acid
Num Peaks: 4
218.986	1000
282.948	1000
311.975	1000
819.951	1000

NAME: PFSM-carboxylic_acid; C17H6F29NO4S
PRECURSORMZ: 869.948171777
PRECURSORTYPE: [M-H]-
IONMODE: Negative
FORMULA: C17H6F29NO4S
SMILES: O=C(O)CN(C)S(=O)(=O)C(F)(F)C(F)(F)C(F)(F)C(F)(F)C(F)(F)C(F)(F)C(F)(F)C(F)(F)C(F)(F)C(F)(F)C(F)(F)C(F)(F)C(F)(F)C(F)(F)F
INCHIKEY: GWQYTIZLVIIZLR-UHFFFAOYSA-N
RETENTIONTIME: 
CCS: 
ONTOLOGY: PFSA
COMMENT: PFSM-carboxylic_acid
Num Peaks: 4
218.986	1000
282.948	1000
311.975	1000
869.948	1000

NAME: PFSM-carboxylic_acid; C18H6F31NO4S
PRECURSORMZ: 919.944978217
PRECURSORTYPE: [M-H]-
IONMODE: Negative
FORMULA: C18H6F31NO4S
SMILES: O=C(O)CN(C)S(=O)(=O)C(F)(F)C(F)(F)C(F)(F)C(F)(F)C(F)(F)C(F)(F)C(F)(F)C(F)(F)C(F)(F)C(F)(F)C(F)(F)C(F)(F)C(F)(F)C(F)(F)C(F)(F)F
INCHIKEY: RYVCEXFTPGIZMK-UHFFFAOYSA-N
RETENTIONTIME: 
CCS: 
ONTOLOGY: PFSA
COMMENT: PFSM-carboxylic_acid
Num Peaks: 4
218.986	1000
282.948	1000
311.975	1000
919.945	1000