NAME: Oxytetracycline
PRECURSORMZ: 459.1408996582031
PRECURSORTYPE: [M-H]-
FORMULA: C22H24N2O9
Ontology: Tetracyclines
INCHIKEY: OWFJMIVZYSDULZ-PXOLEDIWSA-N
SMILES: O=C1C(C(=N)O)=C(O)C2(O)C(=O)C3=C(O)C=4C(O)=CC=CC4C(O)(C)C3C(O)C2C1N(C)C
RETENTIONTIME: 
CCS: 208.1846569
IONMODE: Negative
COLLISIONENERGY: 35HCD
Comment: DB#=VF-NPL-QEHF000001; origin=Vaniya/Fiehn Natural Products Library
Num Peaks: 28
111.00764	70
125.02334	60
135.0441	80
142.01353	200
161.02351	70
163.03911	130
168.02954	60
173.06003	110
181.03748	140
189.05511	60
201.05527	170
203.07095	90
227.07108	80
229.05054	50
245.04555	120
253.05075	130
255.06647	60
267.0665	170
271.06149	110
289.0719	160
297.07718	50
309.07742	60
311.05652	80
312.12448	100
349.03555	60
353.09088	80
374.12479	1000
375.12827	210

NAME: Oxytetracycline
PRECURSORMZ: 459.1408996582031
PRECURSORTYPE: [M-H]-
FORMULA: C22H24N2O9
Ontology: Tetracyclines
INCHIKEY: OWFJMIVZYSDULZ-PXOLEDIWSA-N
SMILES: O=C1C(C(=N)O)=C(O)C2(O)C(=O)C3=C(O)C=4C(O)=CC=CC4C(O)(C)C3C(O)C2C1N(C)C
RETENTIONTIME: 
CCS: 208.1846569
IONMODE: Negative
COLLISIONENERGY: 45HCD
Comment: DB#=VF-NPL-QEHF000002; origin=Vaniya/Fiehn Natural Products Library
Num Peaks: 94
83.01253	160
84.00773	60
87.00749	250
95.01262	90
96.99185	60
97.02822	60
99.00751	60
109.02831	120
111.00763	650
123.00761	110
124.01548	120
125.02337	210
125.07094	90
126.05502	50
134.02373	70
135.00769	100
135.0441	800
137.0233	80
140.0706	70
141.0183	60
142.01353	370
142.99765	270
150.01868	90
151.00273	80
151.02672	110
159.04424	200
161.02347	520
163.00282	80
163.02666	200
163.03911	510
164.0107	290
167.02155	140
168.0293	70
168.0658	90
173.06006	790
174.03146	190
174.06351	60
178.01369	80
180.02945	100
181.03745	320
185.05995	70
187.03938	320
188.04726	90
189.05519	250
197.06007	220
199.07587	170
201.05525	840
203.07097	250
209.06038	170
210.06721	50
211.0761	230
214.36761	150
214.37743	150
221.06044	90
223.07613	160
224.04753	60
225.05551	370
227.07104	300
229.05035	100
235.03958	80
237.05548	110
239.07132	260
243.06621	210
245.0455	250
249.05534	270
251.07143	80
252.04248	110
253.05069	820
253.08673	60
254.05617	130
255.06628	350
256.03769	110
263.07144	110
265.05106	70
267.06653	1000
268.06998	150
271.06134	430
274.04822	60
277.05051	270
279.06595	100
283.06128	90
289.07159	370
291.06635	140
293.04562	210
295.06082	70
303.03009	60
305.04541	70
307.0611	100
311.05621	120
312.12442	420
313.12769	60
321.04013	90
374.12473	890
375.12827	150

NAME: Oxytetracycline
PRECURSORMZ: 459.1408996582031
PRECURSORTYPE: [M-H]-
FORMULA: C22H24N2O9
Ontology: Tetracyclines
INCHIKEY: OWFJMIVZYSDULZ-PXOLEDIWSA-N
SMILES: O=C1C(C(=N)O)=C(O)C2(O)C(=O)C3=C(O)C=4C(O)=CC=CC4C(O)(C)C3C(O)C2C1N(C)C
RETENTIONTIME: 
CCS: 208.1846569
IONMODE: Negative
COLLISIONENERGY: 65HCD
Comment: DB#=VF-NPL-QEHF000003; origin=Vaniya/Fiehn Natural Products Library
Num Peaks: 60
65.99727	60
68.99693	120
83.0126	210
84.00781	120
87.00751	110
91.01768	50
93.03336	70
95.0126	150
96.99184	120
97.02827	60
108.02052	80
109.0283	130
111.00763	210
121.02835	50
123.00758	90
124.01556	80
125.02338	60
126.05494	50
134.02373	80
135.00783	90
135.0441	1000
136.04747	70
139.0139	70
142.99754	120
145.02846	60
150.01875	110
159.04431	180
161.02353	380
163.02675	90
163.03914	100
164.0107	80
171.04425	100
172.05223	240
173.06015	670
174.03143	220
174.06343	60
185.06026	70
187.03931	290
196.05243	100
197.06036	260
199.07588	150
201.05524	360
203.03453	80
209.0605	250
211.03979	60
211.07616	170
221.06044	130
223.07617	100
224.04764	160
225.0555	270
233.06078	70
235.03972	240
237.05548	80
239.07106	130
249.05554	140
252.04288	70
253.0508	630
254.05463	90
267.06647	70
277.05069	60

NAME: Fucoxanthin
PRECURSORMZ: 657.4160766601562
PRECURSORTYPE: [M-H]-
FORMULA: C42H58O6
Ontology: Xanthophylls
INCHIKEY: SJWWTRQNNRNTPU-ABBNZJFMSA-N
SMILES: O=C(OC1CC(O)(C(=C=CC(=CC=CC(=CC=CC=C(C=CC=C(C(=O)CC23OC3(C)CC(O)CC2(C)C)C)C)C)C)C(C)(C)C1)C)C
RETENTIONTIME: 
CCS: 251.6206303
IONMODE: Negative
COLLISIONENERGY: 35HCD
Comment: DB#=VF-NPL-QEHF000007; origin=Vaniya/Fiehn Natural Products Library
Num Peaks: 15
59.0125	1000
61.98703	260
78.9846	80
79.95605	60
83.04892	130
85.0282	70
94.97959	270
96.95882	120
100.9324	90
110.95681	160
115.91954	460
116.91978	50
116.92729	60
130.94308	150
153.09113	60

NAME: Fucoxanthin
PRECURSORMZ: 657.4160766601562
PRECURSORTYPE: [M-H]-
FORMULA: C42H58O6
Ontology: Xanthophylls
INCHIKEY: SJWWTRQNNRNTPU-ABBNZJFMSA-N
SMILES: O=C(OC1CC(O)(C(=C=CC(=CC=CC(=CC=CC=C(C=CC=C(C(=O)CC23OC3(C)CC(O)CC2(C)C)C)C)C)C)C(C)(C)C1)C)C
RETENTIONTIME: 
CCS: 251.6206303
IONMODE: Negative
COLLISIONENERGY: 45HCD
Comment: DB#=VF-NPL-QEHF000008; origin=Vaniya/Fiehn Natural Products Library
Num Peaks: 15
59.0125	1000
61.98703	300
63.96112	60
78.98462	70
79.95605	100
83.04893	140
85.02822	70
94.97958	310
96.95882	150
100.93238	100
110.95681	170
115.91954	610
116.91979	70
116.92727	70
130.9431	50

NAME: Fucoxanthin
PRECURSORMZ: 657.4160766601562
PRECURSORTYPE: [M-H]-
FORMULA: C42H58O6
Ontology: Xanthophylls
INCHIKEY: SJWWTRQNNRNTPU-ABBNZJFMSA-N
SMILES: O=C(OC1CC(O)(C(=C=CC(=CC=CC(=CC=CC=C(C=CC=C(C(=O)CC23OC3(C)CC(O)CC2(C)C)C)C)C)C)C(C)(C)C1)C)C
RETENTIONTIME: 
CCS: 251.6206303
IONMODE: Negative
COLLISIONENERGY: 65HCD
Comment: DB#=VF-NPL-QEHF000009; origin=Vaniya/Fiehn Natural Products Library
Num Peaks: 15
59.0125	1000
61.98703	420
63.96111	140
78.98463	50
79.95606	270
83.04893	120
94.97958	350
95.93323	80
96.95882	200
99.92449	100
100.93237	100
110.95679	150
115.91952	790
116.91978	90
116.92728	90

NAME: 2-Hydroxychalcone
PRECURSORMZ: 223.07644653320307
PRECURSORTYPE: [M-H]-
FORMULA: C15H12O2
Ontology: Retrochalcones
INCHIKEY: UDOOPSJCRMKSGL-ZHACJKMWSA-N
SMILES: O=C(C=CC=1C=CC=CC1O)C=2C=CC=CC2
RETENTIONTIME: 
CCS: -1
IONMODE: Negative
COLLISIONENERGY: 25HCD
Comment: DB#=VF-NPL-QEHF000013; origin=Vaniya/Fiehn Natural Products Library
Num Peaks: 3
195.08067	70
223.07571	1000
224.0791	160

NAME: 2-Hydroxychalcone
PRECURSORMZ: 223.07644653320307
PRECURSORTYPE: [M-H]-
FORMULA: C15H12O2
Ontology: Retrochalcones
INCHIKEY: UDOOPSJCRMKSGL-ZHACJKMWSA-N
SMILES: O=C(C=CC=1C=CC=CC1O)C=2C=CC=CC2
RETENTIONTIME: 
CCS: -1
IONMODE: Negative
COLLISIONENERGY: 35HCD
Comment: DB#=VF-NPL-QEHF000014; origin=Vaniya/Fiehn Natural Products Library
Num Peaks: 6
93.03321	70
195.08066	380
196.08397	60
221.06021	70
223.07571	1000
224.0791	160

NAME: 2-Hydroxychalcone
PRECURSORMZ: 223.07644653320307
PRECURSORTYPE: [M-H]-
FORMULA: C15H12O2
Ontology: Retrochalcones
INCHIKEY: UDOOPSJCRMKSGL-ZHACJKMWSA-N
SMILES: O=C(C=CC=1C=CC=CC1O)C=2C=CC=CC2
RETENTIONTIME: 
CCS: -1
IONMODE: Negative
COLLISIONENERGY: 45HCD
Comment: DB#=VF-NPL-QEHF000015; origin=Vaniya/Fiehn Natural Products Library
Num Peaks: 14
93.03323	250
101.03831	50
117.03328	100
145.02827	70
147.04404	120
193.06496	90
195.08064	1000
196.08398	150
204.05717	70
205.06538	70
221.06018	160
222.06804	60
223.07574	720
224.07909	120

NAME: D-sorbosonic acid
PRECURSORMZ: 193.0353851318359
PRECURSORTYPE: [M-H]-
FORMULA: C6H10O7
Ontology: Sugar acids and derivatives
INCHIKEY: VBUYCZFBVCCYFD-FLRLBIABSA-N
SMILES: O=C(O)C(=O)C(O)C(O)C(O)CO
RETENTIONTIME: 
CCS: 133.0150081
IONMODE: Negative
COLLISIONENERGY: 25HCD
Comment: DB#=VF-NPL-QEHF000019; origin=Vaniya/Fiehn Natural Products Library
Num Peaks: 3
59.01244	150
103.00233	1000
193.03444	80

NAME: D-sorbosonic acid
PRECURSORMZ: 193.0353851318359
PRECURSORTYPE: [M-H]-
FORMULA: C6H10O7
Ontology: Sugar acids and derivatives
INCHIKEY: VBUYCZFBVCCYFD-FLRLBIABSA-N
SMILES: O=C(O)C(=O)C(O)C(O)C(O)CO
RETENTIONTIME: 
CCS: 133.0150081
IONMODE: Negative
COLLISIONENERGY: 35HCD
Comment: DB#=VF-NPL-QEHF000020; origin=Vaniya/Fiehn Natural Products Library
Num Peaks: 3
59.01244	310
71.01246	60
103.00233	1000

NAME: D-sorbosonic acid
PRECURSORMZ: 193.0353851318359
PRECURSORTYPE: [M-H]-
FORMULA: C6H10O7
Ontology: Sugar acids and derivatives
INCHIKEY: VBUYCZFBVCCYFD-FLRLBIABSA-N
SMILES: O=C(O)C(=O)C(O)C(O)C(O)CO
RETENTIONTIME: 
CCS: 133.0150081
IONMODE: Negative
COLLISIONENERGY: 45HCD
Comment: DB#=VF-NPL-QEHF000021; origin=Vaniya/Fiehn Natural Products Library
Num Peaks: 3
59.01245	650
71.01247	110
103.00235	1000

NAME: Oleoyl sarcosine
PRECURSORMZ: 352.2857055664062
PRECURSORTYPE: [M-H]-
FORMULA: C21H39NO3
Ontology: N-acyl-alpha amino acids
INCHIKEY: DIOYAVUHUXAUPX-ZHACJKMWSA-N
SMILES: O=C(O)CN(C(=O)CCCCCCCC=CCCCCCCCC)C
RETENTIONTIME: 
CCS: 232.2636687
IONMODE: Negative
COLLISIONENERGY: 25HCD
Comment: DB#=VF-NPL-QEHF000025; origin=Vaniya/Fiehn Natural Products Library
Num Peaks: 6
74.02339	1000
352.24921	460
352.28473	70
353.20038	100
353.25269	90
354.26508	720

NAME: Oleoyl sarcosine
PRECURSORMZ: 352.2857055664062
PRECURSORTYPE: [M-H]-
FORMULA: C21H39NO3
Ontology: N-acyl-alpha amino acids
INCHIKEY: DIOYAVUHUXAUPX-ZHACJKMWSA-N
SMILES: O=C(O)CN(C(=O)CCCCCCCC=CCCCCCCCC)C
RETENTIONTIME: 
CCS: 232.2636687
IONMODE: Negative
COLLISIONENERGY: 35HCD
Comment: DB#=VF-NPL-QEHF000026; origin=Vaniya/Fiehn Natural Products Library
Num Peaks: 2
74.02338	1000
354.26456	50

NAME: Oleoyl sarcosine
PRECURSORMZ: 352.2857055664062
PRECURSORTYPE: [M-H]-
FORMULA: C21H39NO3
Ontology: N-acyl-alpha amino acids
INCHIKEY: DIOYAVUHUXAUPX-ZHACJKMWSA-N
SMILES: O=C(O)CN(C(=O)CCCCCCCC=CCCCCCCCC)C
RETENTIONTIME: 
CCS: 232.2636687
IONMODE: Negative
COLLISIONENERGY: 45HCD
Comment: DB#=VF-NPL-QEHF000027; origin=Vaniya/Fiehn Natural Products Library
Num Peaks: 2
74.02339	1000
96.95876	90

NAME: Mesotrione
PRECURSORMZ: 338.0339965820312
PRECURSORTYPE: [M-H]-
FORMULA: C14H13NO7S
Ontology: Benzoylcyclohexane-1,3-diones
INCHIKEY: KPUREKXXPHOJQT-UHFFFAOYSA-N
SMILES: O=C(C1=CC=C(C=C1N(=O)=O)S(=O)(=O)C)C2C(=O)CCCC2=O
RETENTIONTIME: 
CCS: 186.6399299
IONMODE: Negative
COLLISIONENERGY: 25HCD
Comment: DB#=VF-NPL-QEHF000031; origin=Vaniya/Fiehn Natural Products Library
Num Peaks: 2
291.03317	1000
292.03644	150

NAME: Mesotrione
PRECURSORMZ: 338.0339965820312
PRECURSORTYPE: [M-H]-
FORMULA: C14H13NO7S
Ontology: Benzoylcyclohexane-1,3-diones
INCHIKEY: KPUREKXXPHOJQT-UHFFFAOYSA-N
SMILES: O=C(C1=CC=C(C=C1N(=O)=O)S(=O)(=O)C)C2C(=O)CCCC2=O
RETENTIONTIME: 
CCS: 186.6399299
IONMODE: Negative
COLLISIONENERGY: 35HCD
Comment: DB#=VF-NPL-QEHF000032; origin=Vaniya/Fiehn Natural Products Library
Num Peaks: 3
212.04721	80
291.03317	1000
292.03635	150

NAME: Mesotrione
PRECURSORMZ: 338.0339965820312
PRECURSORTYPE: [M-H]-
FORMULA: C14H13NO7S
Ontology: Benzoylcyclohexane-1,3-diones
INCHIKEY: KPUREKXXPHOJQT-UHFFFAOYSA-N
SMILES: O=C(C1=CC=C(C=C1N(=O)=O)S(=O)(=O)C)C2C(=O)CCCC2=O
RETENTIONTIME: 
CCS: 186.6399299
IONMODE: Negative
COLLISIONENERGY: 45HCD
Comment: DB#=VF-NPL-QEHF000033; origin=Vaniya/Fiehn Natural Products Library
Num Peaks: 8
212.04713	520
213.05052	70
215.03426	190
216.04225	50
247.04323	60
249.02231	300
291.03323	1000
292.03662	150

NAME: (S,R)-Nosapine
PRECURSORMZ: 412.1401672363281
PRECURSORTYPE: [M-H]-
FORMULA: C22H23NO7
Ontology: Phthalide isoquinolines
INCHIKEY: AKNNEGZIBPJZJG-MSOLQXFVSA-N
SMILES: O=C1OC(C2=CC=C(OC)C(OC)=C12)C3C4=C(OC)C=5OCOC5C=C4CCN3C
RETENTIONTIME: 
CCS: 202.4773931
IONMODE: Negative
COLLISIONENERGY: 25HCD
Comment: DB#=VF-NPL-QEHF000043; origin=Vaniya/Fiehn Natural Products Library
Num Peaks: 26
59.01246	240
61.98698	430
78.98459	210
94.9795	180
96.95876	100
116.92724	60
155.10664	140
173.11732	970
174.12068	100
255.23273	1000
256.23611	180
293.17908	100
311.16849	460
312.17157	60
325.18396	830
326.18735	650
327.18002	120
347.13162	60
397.97955	50
411.09348	140
411.13623	100
411.24158	180
411.38382	130
413.00278	50
413.13419	80
413.22119	130

NAME: (S,R)-Nosapine
PRECURSORMZ: 412.1401672363281
PRECURSORTYPE: [M-H]-
FORMULA: C22H23NO7
Ontology: Phthalide isoquinolines
INCHIKEY: AKNNEGZIBPJZJG-MSOLQXFVSA-N
SMILES: O=C1OC(C2=CC=C(OC)C(OC)=C12)C3C4=C(OC)C=5OCOC5C=C4CCN3C
RETENTIONTIME: 
CCS: 202.4773931
IONMODE: Negative
COLLISIONENERGY: 35HCD
Comment: DB#=VF-NPL-QEHF000044; origin=Vaniya/Fiehn Natural Products Library
Num Peaks: 23
59.01246	270
61.98698	450
63.96107	70
78.98457	220
94.97952	200
96.95876	170
99.92448	110
116.92725	60
127.87241	90
129.86906	80
155.1067	90
173.11725	660
174.12059	60
255.2327	1000
256.23608	180
293.17938	90
311.16849	400
325.18399	720
326.18732	570
327.18097	100
347.13184	80
411.24146	130
411.38434	60

NAME: (S,R)-Nosapine
PRECURSORMZ: 412.1401672363281
PRECURSORTYPE: [M-H]-
FORMULA: C22H23NO7
Ontology: Phthalide isoquinolines
INCHIKEY: AKNNEGZIBPJZJG-MSOLQXFVSA-N
SMILES: O=C1OC(C2=CC=C(OC)C(OC)=C12)C3C4=C(OC)C=5OCOC5C=C4CCN3C
RETENTIONTIME: 
CCS: 202.4773931
IONMODE: Negative
COLLISIONENERGY: 45HCD
Comment: DB#=VF-NPL-QEHF000045; origin=Vaniya/Fiehn Natural Products Library
Num Peaks: 30
59.01247	340
61.98698	590
63.96108	140
74.02339	70
78.98458	250
79.95602	90
89.02306	60
94.97951	240
96.95875	440
99.92444	280
115.9194	50
116.92722	80
127.11161	120
127.87247	120
129.86906	110
155.10669	70
173.11725	570
174.12065	60
183.01123	170
197.02687	50
255.23273	1000
256.23611	180
293.17926	60
311.16852	440
312.17206	50
325.18399	780
326.18735	630
327.17972	110
365.3786	70
411.24146	60

NAME: 4-nitroquinoline 1-oxide
PRECURSORMZ: 189.0305633544922
PRECURSORTYPE: [M-H]-
FORMULA: C9H6N2O3
Ontology: 4-nitroquinoline N-oxides
INCHIKEY: YHQDZJICGQWFHK-UHFFFAOYSA-N
SMILES: O=N(=O)C1=CC=N(=O)C=2C=CC=CC12
RETENTIONTIME: 
CCS: 135.0833944
IONMODE: Negative
COLLISIONENERGY: 25HCD
Comment: DB#=VF-NPL-QEHF000049; origin=Vaniya/Fiehn Natural Products Library
Num Peaks: 4
160.03932	240
189.02972	1000
190.03693	140
190.05008	70

NAME: 4-nitroquinoline 1-oxide
PRECURSORMZ: 189.0305633544922
PRECURSORTYPE: [M-H]-
FORMULA: C9H6N2O3
Ontology: 4-nitroquinoline N-oxides
INCHIKEY: YHQDZJICGQWFHK-UHFFFAOYSA-N
SMILES: O=N(=O)C1=CC=N(=O)C=2C=CC=CC12
RETENTIONTIME: 
CCS: 135.0833944
IONMODE: Negative
COLLISIONENERGY: 35HCD
Comment: DB#=VF-NPL-QEHF000050; origin=Vaniya/Fiehn Natural Products Library
Num Peaks: 7
125.0959	60
131.03644	70
159.03145	80
160.03947	260
189.02974	1000
190.03403	70
190.05029	60

NAME: 4-nitroquinoline 1-oxide
PRECURSORMZ: 189.0305633544922
PRECURSORTYPE: [M-H]-
FORMULA: C9H6N2O3
Ontology: 4-nitroquinoline N-oxides
INCHIKEY: YHQDZJICGQWFHK-UHFFFAOYSA-N
SMILES: O=N(=O)C1=CC=N(=O)C=2C=CC=CC12
RETENTIONTIME: 
CCS: 135.0833944
IONMODE: Negative
COLLISIONENERGY: 45HCD
Comment: DB#=VF-NPL-QEHF000051; origin=Vaniya/Fiehn Natural Products Library
Num Peaks: 15
89.02308	50
116.04936	70
118.02856	60
125.096	110
131.03648	240
142.02875	140
143.03667	50
144.04443	130
159.03157	340
160.03954	330
172.03941	70
176.0218	50
189.02975	1000
190.03275	80
190.04974	60

NAME: Quinidine
PRECURSORMZ: 323.176513671875
PRECURSORTYPE: [M-H]-
FORMULA: C20H24N2O2
Ontology: Cinchona alkaloids
INCHIKEY: LOUPRKONTZGTKE-LHHVKLHASA-N
SMILES: OC(C=1C=CN=C2C=CC(OC)=CC21)C3N4CCC(C3)C(C=C)C4
RETENTIONTIME: 
CCS: 186.3232797
IONMODE: Negative
COLLISIONENERGY: 25HCD
Comment: DB#=VF-NPL-QEHF000055; origin=Vaniya/Fiehn Natural Products Library
Num Peaks: 1
325.18393	1000

NAME: Quinidine
PRECURSORMZ: 323.176513671875
PRECURSORTYPE: [M-H]-
FORMULA: C20H24N2O2
Ontology: Cinchona alkaloids
INCHIKEY: LOUPRKONTZGTKE-LHHVKLHASA-N
SMILES: OC(C=1C=CN=C2C=CC(OC)=CC21)C3N4CCC(C3)C(C=C)C4
RETENTIONTIME: 
CCS: 186.3232797
IONMODE: Negative
COLLISIONENERGY: 35HCD
Comment: DB#=VF-NPL-QEHF000056; origin=Vaniya/Fiehn Natural Products Library
Num Peaks: 1
325.18387	1000

NAME: Quinidine
PRECURSORMZ: 323.176513671875
PRECURSORTYPE: [M-H]-
FORMULA: C20H24N2O2
Ontology: Cinchona alkaloids
INCHIKEY: LOUPRKONTZGTKE-LHHVKLHASA-N
SMILES: OC(C=1C=CN=C2C=CC(OC)=CC21)C3N4CCC(C3)C(C=C)C4
RETENTIONTIME: 
CCS: 186.3232797
IONMODE: Negative
COLLISIONENERGY: 45HCD
Comment: DB#=VF-NPL-QEHF000057; origin=Vaniya/Fiehn Natural Products Library
Num Peaks: 4
96.95876	50
183.01123	270
197.02701	80
325.18393	1000

NAME: Quercetin
PRECURSORMZ: 301.0353698730469
PRECURSORTYPE: [M-H]-
FORMULA: C15H10O7
Ontology: Flavonols
INCHIKEY: REFJWTPEDVJJIY-UHFFFAOYSA-N
SMILES: O=C1C(O)=C(OC=2C=C(O)C=C(O)C12)C=3C=CC(O)=C(O)C3
RETENTIONTIME: 
CCS: 166.0397546
IONMODE: Negative
COLLISIONENERGY: 25HCD
Comment: DB#=VF-NPL-QEHF000061; origin=Vaniya/Fiehn Natural Products Library
Num Peaks: 4
151.00258	300
178.99762	250
301.03506	1000
302.03848	160

NAME: Quercetin
PRECURSORMZ: 301.0353698730469
PRECURSORTYPE: [M-H]-
FORMULA: C15H10O7
Ontology: Flavonols
INCHIKEY: REFJWTPEDVJJIY-UHFFFAOYSA-N
SMILES: O=C1C(O)=C(OC=2C=C(O)C=C(O)C12)C=3C=CC(O)=C(O)C3
RETENTIONTIME: 
CCS: 166.0397546
IONMODE: Negative
COLLISIONENERGY: 35HCD
Comment: DB#=VF-NPL-QEHF000062; origin=Vaniya/Fiehn Natural Products Library
Num Peaks: 8
107.0126	80
121.02824	170
151.00255	1000
152.00583	70
178.99767	450
273.04056	80
301.03516	450
302.03854	80

NAME: Quercetin
PRECURSORMZ: 301.0353698730469
PRECURSORTYPE: [M-H]-
FORMULA: C15H10O7
Ontology: Flavonols
INCHIKEY: REFJWTPEDVJJIY-UHFFFAOYSA-N
SMILES: O=C1C(O)=C(OC=2C=C(O)C=C(O)C12)C=3C=CC(O)=C(O)C3
RETENTIONTIME: 
CCS: 166.0397546
IONMODE: Negative
COLLISIONENERGY: 45HCD
Comment: DB#=VF-NPL-QEHF000063; origin=Vaniya/Fiehn Natural Products Library
Num Peaks: 9
63.02266	50
65.00191	90
83.0125	90
107.01256	260
121.02828	250
151.00262	1000
152.00571	60
178.99767	240
301.0351	120

NAME: naringenin-7-O-glucoside
PRECURSORMZ: 433.114013671875
PRECURSORTYPE: [M-H]-
FORMULA: C21H22O10
Ontology: Flavonoid-7-O-glycosides
INCHIKEY: DLIKSSGEMUFQOK-RGHIGTIISA-N
SMILES: O=C1C2=C(O)C=C(OC3OC(CO)C(O)C(O)C3O)C=C2OC(C4=CC=C(O)C=C4)C1
RETENTIONTIME: 
CCS: 197.7449222
IONMODE: Negative
COLLISIONENERGY: 25HCD
Comment: DB#=VF-NPL-QEHF000067; origin=Vaniya/Fiehn Natural Products Library
Num Peaks: 2
271.06097	1000
272.06451	150

NAME: naringenin-7-O-glucoside
PRECURSORMZ: 433.114013671875
PRECURSORTYPE: [M-H]-
FORMULA: C21H22O10
Ontology: Flavonoid-7-O-glycosides
INCHIKEY: DLIKSSGEMUFQOK-RGHIGTIISA-N
SMILES: O=C1C2=C(O)C=C(OC3OC(CO)C(O)C(O)C3O)C=C2OC(C4=CC=C(O)C=C4)C1
RETENTIONTIME: 
CCS: 197.7449222
IONMODE: Negative
COLLISIONENERGY: 35HCD
Comment: DB#=VF-NPL-QEHF000068; origin=Vaniya/Fiehn Natural Products Library
Num Peaks: 4
119.04897	90
151.0025	350
271.06119	1000
272.06445	160

NAME: naringenin-7-O-glucoside
PRECURSORMZ: 433.114013671875
PRECURSORTYPE: [M-H]-
FORMULA: C21H22O10
Ontology: Flavonoid-7-O-glycosides
INCHIKEY: DLIKSSGEMUFQOK-RGHIGTIISA-N
SMILES: O=C1C2=C(O)C=C(OC3OC(CO)C(O)C(O)C3O)C=C2OC(C4=CC=C(O)C=C4)C1
RETENTIONTIME: 
CCS: 197.7449222
IONMODE: Negative
COLLISIONENERGY: 45HCD
Comment: DB#=VF-NPL-QEHF000069; origin=Vaniya/Fiehn Natural Products Library
Num Peaks: 8
93.03326	140
107.01254	120
119.049	460
151.00261	1000
152.00594	70
177.0184	110
271.06104	520
272.06451	80

NAME: Glycitein
PRECURSORMZ: 283.0611877441406
PRECURSORTYPE: [M-H]-
FORMULA: C16H12O5
Ontology: Isoflavones
INCHIKEY: DXYUAIFZCFRPTH-UHFFFAOYSA-N
SMILES: O=C1C(=COC2=CC(O)=C(OC)C=C12)C=3C=CC(O)=CC3
RETENTIONTIME: 
CCS: 166.5091559
IONMODE: Negative
COLLISIONENERGY: 35HCD
Comment: DB#=VF-NPL-QEHF000073; origin=Vaniya/Fiehn Natural Products Library
Num Peaks: 4
240.04266	100
268.03787	1000
269.04126	160
283.06119	140

NAME: Glycitein
PRECURSORMZ: 283.0611877441406
PRECURSORTYPE: [M-H]-
FORMULA: C16H12O5
Ontology: Isoflavones
INCHIKEY: DXYUAIFZCFRPTH-UHFFFAOYSA-N
SMILES: O=C1C(=COC2=CC(O)=C(OC)C=C12)C=3C=CC(O)=CC3
RETENTIONTIME: 
CCS: 166.5091559
IONMODE: Negative
COLLISIONENERGY: 45HCD
Comment: DB#=VF-NPL-QEHF000074; origin=Vaniya/Fiehn Natural Products Library
Num Peaks: 4
240.04265	570
241.04602	90
268.03787	1000
269.04126	160

NAME: Glycitein
PRECURSORMZ: 283.0611877441406
PRECURSORTYPE: [M-H]-
FORMULA: C16H12O5
Ontology: Isoflavones
INCHIKEY: DXYUAIFZCFRPTH-UHFFFAOYSA-N
SMILES: O=C1C(=COC2=CC(O)=C(OC)C=C12)C=3C=CC(O)=CC3
RETENTIONTIME: 
CCS: 166.5091559
IONMODE: Negative
COLLISIONENERGY: 65HCD
Comment: DB#=VF-NPL-QEHF000075; origin=Vaniya/Fiehn Natural Products Library
Num Peaks: 12
96.95882	60
147.00769	60
187.03931	190
196.05238	400
197.05576	50
211.03961	280
212.04626	50
239.03477	240
240.04266	1000
241.0461	160
267.03009	90
268.03787	210

NAME: (-)-Riboflavin
PRECURSORMZ: 375.1310119628906
PRECURSORTYPE: [M-H]-
FORMULA: C17H20N4O6
Ontology: Flavins
INCHIKEY: AUNGANRZJHBGPY-SCRDCRAPSA-N
SMILES: O=C1N=C(O)C2=NC3=CC(=C(C=C3N(C2=N1)CC(O)C(O)C(O)CO)C)C
RETENTIONTIME: 
CCS: 184.524568
IONMODE: Negative
COLLISIONENERGY: 25HCD
Comment: DB#=VF-NPL-QEHF000079; origin=Vaniya/Fiehn Natural Products Library
Num Peaks: 4
241.07281	170
243.0885	160
255.08847	1000
256.09229	130

NAME: (-)-Riboflavin
PRECURSORMZ: 375.1310119628906
PRECURSORTYPE: [M-H]-
FORMULA: C17H20N4O6
Ontology: Flavins
INCHIKEY: AUNGANRZJHBGPY-SCRDCRAPSA-N
SMILES: O=C1N=C(O)C2=NC3=CC(=C(C=C3N(C2=N1)CC(O)C(O)C(O)CO)C)C
RETENTIONTIME: 
CCS: 184.524568
IONMODE: Negative
COLLISIONENERGY: 35HCD
Comment: DB#=VF-NPL-QEHF000080; origin=Vaniya/Fiehn Natural Products Library
Num Peaks: 6
212.0822	290
241.07262	340
242.07886	60
243.0883	210
255.08847	1000
256.09207	130

NAME: (-)-Riboflavin
PRECURSORMZ: 375.1310119628906
PRECURSORTYPE: [M-H]-
FORMULA: C17H20N4O6
Ontology: Flavins
INCHIKEY: AUNGANRZJHBGPY-SCRDCRAPSA-N
SMILES: O=C1N=C(O)C2=NC3=CC(=C(C=C3N(C2=N1)CC(O)C(O)C(O)CO)C)C
RETENTIONTIME: 
CCS: 184.524568
IONMODE: Negative
COLLISIONENERGY: 45HCD
Comment: DB#=VF-NPL-QEHF000081; origin=Vaniya/Fiehn Natural Products Library
Num Peaks: 10
184.08713	110
198.06653	170
212.08235	1000
213.08614	120
240.06497	130
241.07285	900
242.07758	140
243.08862	310
255.08847	990
256.09232	130

NAME: 2,8-quinolinediol
PRECURSORMZ: 202.05096435546878
PRECURSORTYPE: [M-H]-
FORMULA: C11H9NO3
Ontology: Hydroquinolones
INCHIKEY: UTMRKCQYCLEKDL-UHFFFAOYSA-N
SMILES: O=C(OC1=CC=CC2=CC=C(O)N=C12)C
RETENTIONTIME: 
CCS: -1
IONMODE: Negative
COLLISIONENERGY: 25HCD
Comment: DB#=VF-NPL-QEHF000091; origin=Vaniya/Fiehn Natural Products Library
Num Peaks: 31
59.01246	820
61.98698	50
87.00744	50
99.92444	140
116.92726	140
121.02826	120
125.09593	70
139.11162	100
141.93518	700
142.93495	80
158.89207	50
159.89284	90
160.03941	90
160.89168	70
161.01085	70
183.10178	50
189.00592	140
200.12828	180
200.17303	90
200.85818	220
201.02448	190
201.07628	60
201.11259	240
201.14891	380
201.95674	80
202.05026	80
202.06137	50
203.04553	80
203.09174	50
204.0295	1000
204.06566	110

NAME: 2,8-quinolinediol
PRECURSORMZ: 202.05096435546878
PRECURSORTYPE: [M-H]-
FORMULA: C11H9NO3
Ontology: Hydroquinolones
INCHIKEY: UTMRKCQYCLEKDL-UHFFFAOYSA-N
SMILES: O=C(OC1=CC=CC2=CC=C(O)N=C12)C
RETENTIONTIME: 
CCS: -1
IONMODE: Negative
COLLISIONENERGY: 35HCD
Comment: DB#=VF-NPL-QEHF000092; origin=Vaniya/Fiehn Natural Products Library
Num Peaks: 20
59.01246	1000
61.98698	50
87.00745	50
99.92445	360
116.92725	130
121.02825	90
139.1116	140
141.93518	420
158.89211	70
159.89284	110
160.03943	110
160.89168	90
161.01083	210
189.00592	190
200.12831	60
200.85825	100
201.11263	100
201.14888	180
204.02951	500
204.06578	70

NAME: 2,8-quinolinediol
PRECURSORMZ: 202.05096435546878
PRECURSORTYPE: [M-H]-
FORMULA: C11H9NO3
Ontology: Hydroquinolones
INCHIKEY: UTMRKCQYCLEKDL-UHFFFAOYSA-N
SMILES: O=C(OC1=CC=CC2=CC=C(O)N=C12)C
RETENTIONTIME: 
CCS: -1
IONMODE: Negative
COLLISIONENERGY: 45HCD
Comment: DB#=VF-NPL-QEHF000093; origin=Vaniya/Fiehn Natural Products Library
Num Peaks: 17
59.01245	1000
61.98698	60
99.92445	540
100.92459	60
116.92725	130
121.02824	60
133.01569	100
139.11163	110
141.93521	210
158.89204	70
159.89278	120
160.03935	140
160.8916	90
161.0108	350
189.00592	110
201.14883	60
204.02945	230

NAME: Biliverdin
PRECURSORMZ: 581.2405395507812
PRECURSORTYPE: [M-H]-
FORMULA: C33H34N4O6
Ontology: Bilirubins
INCHIKEY: RCNSAJSGRJSBKK-NSQVQWHSSA-N
SMILES: O=C1N=C(C=C2NC(=CC=3NC(C=C4N=C(O)C(=C4C=C)C)=C(C3CCC(=O)O)C)C(=C2C)CCC(=O)O)C(=C1C=C)C
RETENTIONTIME: 
CCS: 242.9292215
IONMODE: Negative
COLLISIONENERGY: 25HCD
Comment: DB#=VF-NPL-QEHF000097; origin=Vaniya/Fiehn Natural Products Library
Num Peaks: 5
239.11856	370
240.12204	60
241.13441	90
285.1243	1000
286.12772	160

NAME: Biliverdin
PRECURSORMZ: 581.2405395507812
PRECURSORTYPE: [M-H]-
FORMULA: C33H34N4O6
Ontology: Bilirubins
INCHIKEY: RCNSAJSGRJSBKK-NSQVQWHSSA-N
SMILES: O=C1N=C(C=C2NC(=CC=3NC(C=C4N=C(O)C(=C4C=C)C)=C(C3CCC(=O)O)C)C(=C2C)CCC(=O)O)C(=C1C=C)C
RETENTIONTIME: 
CCS: 242.9292215
IONMODE: Negative
COLLISIONENERGY: 35HCD
Comment: DB#=VF-NPL-QEHF000098; origin=Vaniya/Fiehn Natural Products Library
Num Peaks: 7
122.05987	110
213.10272	160
239.11853	550
240.12196	80
241.13425	340
285.1243	1000
286.12775	160

NAME: Biliverdin
PRECURSORMZ: 581.2405395507812
PRECURSORTYPE: [M-H]-
FORMULA: C33H34N4O6
Ontology: Bilirubins
INCHIKEY: RCNSAJSGRJSBKK-NSQVQWHSSA-N
SMILES: O=C1N=C(C=C2NC(=CC=3NC(C=C4N=C(O)C(=C4C=C)C)=C(C3CCC(=O)O)C)C(=C2C)CCC(=O)O)C(=C1C=C)C
RETENTIONTIME: 
CCS: 242.9292215
IONMODE: Negative
COLLISIONENERGY: 45HCD
Comment: DB#=VF-NPL-QEHF000099; origin=Vaniya/Fiehn Natural Products Library
Num Peaks: 17
59.01246	190
120.08057	90
121.05198	100
122.05988	290
134.05983	60
160.06319	200
213.10268	810
214.10597	110
226.11072	70
239.11847	1000
240.12193	150
241.13417	730
242.13783	100
253.1342	70
267.15021	60
285.12436	500
286.12772	80

NAME: COSTUNOLIDE
PRECURSORMZ: 231.13905334472662
PRECURSORTYPE: [M-H]-
FORMULA: C15H20O2
Ontology: Germacranolides and derivatives
INCHIKEY: HRYLQFBHBWLLLL-IKTIWSOHSA-N
SMILES: O=C1OC2C=C(C)CCC=C(C)CCC2C1=C
RETENTIONTIME: 
CCS: 159.9318358
IONMODE: Negative
COLLISIONENERGY: 25HCD
Comment: DB#=VF-NPL-QEHF000103; origin=Vaniya/Fiehn Natural Products Library
Num Peaks: 15
59.01246	1000
187.11201	70
187.98769	60
188.9847	170
229.18056	770
230.18394	290
231.06593	60
231.10239	270
231.13852	680
232.14195	110
232.9753	80
233.0452	50
233.08189	90
233.11797	370
233.15434	260

NAME: COSTUNOLIDE
PRECURSORMZ: 231.13905334472662
PRECURSORTYPE: [M-H]-
FORMULA: C15H20O2
Ontology: Germacranolides and derivatives
INCHIKEY: HRYLQFBHBWLLLL-IKTIWSOHSA-N
SMILES: O=C1OC2C=C(C)CCC=C(C)CCC2C1=C
RETENTIONTIME: 
CCS: 159.9318358
IONMODE: Negative
COLLISIONENERGY: 35HCD
Comment: DB#=VF-NPL-QEHF000104; origin=Vaniya/Fiehn Natural Products Library
Num Peaks: 8
59.01247	1000
187.112	50
229.18057	450
230.18396	180
231.10236	110
231.13853	220
233.11806	130
233.15437	200

NAME: COSTUNOLIDE
PRECURSORMZ: 231.13905334472662
PRECURSORTYPE: [M-H]-
FORMULA: C15H20O2
Ontology: Germacranolides and derivatives
INCHIKEY: HRYLQFBHBWLLLL-IKTIWSOHSA-N
SMILES: O=C1OC2C=C(C)CCC=C(C)CCC2C1=C
RETENTIONTIME: 
CCS: 159.9318358
IONMODE: Negative
COLLISIONENERGY: 45HCD
Comment: DB#=VF-NPL-QEHF000105; origin=Vaniya/Fiehn Natural Products Library
Num Peaks: 6
59.01247	1000
99.92448	60
229.18053	180
230.18393	70
231.13855	60
233.15434	180

NAME: Crocin
PRECURSORMZ: 975.3714599609375
PRECURSORTYPE: [M-H]-
FORMULA: C44H64O24
Ontology: Diterpenoids
INCHIKEY: SEBIKDIMAPSUBY-RTJKDTQDSA-N
SMILES: O=C(OC1OC(COC2OC(CO)C(O)C(O)C2O)C(O)C(O)C1O)C(=CC=CC(=CC=CC=C(C=CC=C(C(=O)OC3OC(COC4OC(CO)C(O)C(O)C4O)C(O)C(O)C3O)C)C)C)C
RETENTIONTIME: 
CCS: 308.6278
IONMODE: Negative
COLLISIONENERGY: 25HCD
Comment: DB#=VF-NPL-QEHF000109; origin=Vaniya/Fiehn Natural Products Library
Num Peaks: 14
71.0125	80
89.02306	150
101.02312	140
113.02316	60
119.03373	80
125.02318	60
179.0551	100
221.06604	70
239.18015	120
283.1702	570
284.17349	100
327.16006	1000
328.16339	190
651.26587	70

NAME: Crocin
PRECURSORMZ: 975.3714599609375
PRECURSORTYPE: [M-H]-
FORMULA: C44H64O24
Ontology: Diterpenoids
INCHIKEY: SEBIKDIMAPSUBY-RTJKDTQDSA-N
SMILES: O=C(OC1OC(COC2OC(CO)C(O)C(O)C2O)C(O)C(O)C1O)C(=CC=CC(=CC=CC=C(C=CC=C(C(=O)OC3OC(COC4OC(CO)C(O)C(O)C4O)C(O)C(O)C3O)C)C)C)C
RETENTIONTIME: 
CCS: 308.6278
IONMODE: Negative
COLLISIONENERGY: 35HCD
Comment: DB#=VF-NPL-QEHF000110; origin=Vaniya/Fiehn Natural Products Library
Num Peaks: 23
71.01249	340
73.02811	80
85.02816	60
89.02306	350
97.02821	60
99.04384	60
101.02312	370
113.02314	190
119.03368	140
119.08536	100
125.02313	130
131.03378	50
133.10101	50
139.07518	70
161.04454	70
221.06625	70
239.18022	830
240.18349	140
265.15985	70
283.17014	1000
284.17361	190
327.15997	280
328.16373	50

NAME: Crocin
PRECURSORMZ: 975.3714599609375
PRECURSORTYPE: [M-H]-
FORMULA: C44H64O24
Ontology: Diterpenoids
INCHIKEY: SEBIKDIMAPSUBY-RTJKDTQDSA-N
SMILES: O=C(OC1OC(COC2OC(CO)C(O)C(O)C2O)C(O)C(O)C1O)C(=CC=CC(=CC=CC=C(C=CC=C(C(=O)OC3OC(COC4OC(CO)C(O)C(O)C4O)C(O)C(O)C3O)C)C)C)C
RETENTIONTIME: -1
CCS: 308.6278
IONMODE: Negative
COLLISIONENERGY: 45HCD
Comment: DB#=VF-NPL-QEHF000111; origin=Vaniya/Fiehn Natural Products Library
Num Peaks: 32
71.01249	1000
73.02813	240
79.05397	70
83.01247	60
85.02818	250
87.00738	90
89.02309	470
93.06969	170
95.01254	90
97.02826	170
99.04386	120
101.02314	650
105.06969	70
113.02318	370
119.03373	140
119.08534	330
121.10101	90
125.02314	230
131.03377	70
131.08539	90
133.10103	140
139.07527	90
143.0854	90
145.10115	130
147.11681	90
161.04456	70
171.11694	70
183.117	50
239.18021	730
240.18361	120
265.15945	50
283.17023	220

NAME: D-(-)-quinic acid
PRECURSORMZ: 191.0561065673828
PRECURSORTYPE: [M-H]-
FORMULA: C7H12O6
Ontology: Quinic acids and derivatives
INCHIKEY: AAWZDTNXLSGCEK-LNVDRNJUSA-N
SMILES: O=C(O)C1(O)CC(O)C(O)C(O)C1
RETENTIONTIME: 
CCS: 136.0426542
IONMODE: Negative
COLLISIONENERGY: 25HCD
Comment: DB#=VF-NPL-QEHF000115; origin=Vaniya/Fiehn Natural Products Library
Num Peaks: 2
191.05522	1000
192.05861	80

NAME: D-(-)-quinic acid
PRECURSORMZ: 191.0561065673828
PRECURSORTYPE: [M-H]-
FORMULA: C7H12O6
Ontology: Quinic acids and derivatives
INCHIKEY: AAWZDTNXLSGCEK-LNVDRNJUSA-N
SMILES: O=C(O)C1(O)CC(O)C(O)C(O)C1
RETENTIONTIME: 
CCS: 136.0426542
IONMODE: Negative
COLLISIONENERGY: 35HCD
Comment: DB#=VF-NPL-QEHF000116; origin=Vaniya/Fiehn Natural Products Library
Num Peaks: 3
85.02813	100
191.05524	1000
192.05861	80

NAME: D-(-)-quinic acid
PRECURSORMZ: 191.0561065673828
PRECURSORTYPE: [M-H]-
FORMULA: C7H12O6
Ontology: Quinic acids and derivatives
INCHIKEY: AAWZDTNXLSGCEK-LNVDRNJUSA-N
SMILES: O=C(O)C1(O)CC(O)C(O)C(O)C1
RETENTIONTIME: 
CCS: 136.0426542
IONMODE: Negative
COLLISIONENERGY: 45HCD
Comment: DB#=VF-NPL-QEHF000117; origin=Vaniya/Fiehn Natural Products Library
Num Peaks: 7
59.01247	50
85.02813	350
87.00741	70
93.03323	110
127.03882	80
191.05524	1000
192.05862	80

NAME: quinine
PRECURSORMZ: 323.176513671875
PRECURSORTYPE: [M-H]-
FORMULA: C20H24N2O2
Ontology: Cinchona alkaloids
INCHIKEY: LOUPRKONTZGTKE-VOMFEXJBSA-N
SMILES: OC(C=1C=CN=C2C=CC(OC)=CC21)C3N4CCC(C3)C(C=C)C4
RETENTIONTIME: 
CCS: 186.3232797
IONMODE: Negative
COLLISIONENERGY: 25HCD
Comment: DB#=VF-NPL-QEHF000121; origin=Vaniya/Fiehn Natural Products Library
Num Peaks: 4
321.21024	60
323.12637	770
324.1297	140
325.18402	1000

NAME: quinine
PRECURSORMZ: 323.176513671875
PRECURSORTYPE: [M-H]-
FORMULA: C20H24N2O2
Ontology: Cinchona alkaloids
INCHIKEY: LOUPRKONTZGTKE-VOMFEXJBSA-N
SMILES: OC(C=1C=CN=C2C=CC(OC)=CC21)C3N4CCC(C3)C(C=C)C4
RETENTIONTIME: 
CCS: 186.3232797
IONMODE: Negative
COLLISIONENERGY: 35HCD
Comment: DB#=VF-NPL-QEHF000122; origin=Vaniya/Fiehn Natural Products Library
Num Peaks: 4
96.95876	60
323.12643	670
324.1297	130
325.18393	1000

NAME: quinine
PRECURSORMZ: 323.176513671875
PRECURSORTYPE: [M-H]-
FORMULA: C20H24N2O2
Ontology: Cinchona alkaloids
INCHIKEY: LOUPRKONTZGTKE-VOMFEXJBSA-N
SMILES: OC(C=1C=CN=C2C=CC(OC)=CC21)C3N4CCC(C3)C(C=C)C4
RETENTIONTIME: 
CCS: 186.3232797
IONMODE: Negative
COLLISIONENERGY: 45HCD
Comment: DB#=VF-NPL-QEHF000123; origin=Vaniya/Fiehn Natural Products Library
Num Peaks: 10
96.95876	160
183.01126	240
197.02698	90
235.07373	140
275.10547	70
293.11581	50
321.11072	60
323.1265	390
324.12964	70
325.18399	1000