NAME: FT-thioether; C10H18F3NO4S2
PRECURSORMZ: 336.055659177
PRECURSORTYPE: [M-H]-
IONMODE: Negative
FORMULA: C10H18F3NO4S2
SMILES: O=C(NC(C)(C)CS(=O)(=O)O)CCSCCC(F)(F)F
INCHIKEY: DLTHJDKHDLWLAE-UHFFFAOYSA-N
RETENTIONTIME: 556.9
CCS: 
ONTOLOGY: PFSA
COMMENT: FT-thioether
Num Peaks: 4
135.012	1000
152.039	1000
206.049	1000
336.056	1000

NAME: FT-thioether; C11H18F5NO4S2
PRECURSORMZ: 386.052465617
PRECURSORTYPE: [M-H]-
IONMODE: Negative
FORMULA: C11H18F5NO4S2
SMILES: O=C(NC(C)(C)CS(=O)(=O)O)CCSCCC(F)(F)C(F)(F)F
INCHIKEY: NFSFEPNLUWBEDN-UHFFFAOYSA-N
RETENTIONTIME: 80.2
CCS: 
ONTOLOGY: PFSA
COMMENT: FT-thioether
Num Peaks: 4
135.012	1000
152.039	1000
206.049	1000
386.052	1000

NAME: FT-thioether; C12H18F7NO4S2
PRECURSORMZ: 436.049272057
PRECURSORTYPE: [M-H]-
IONMODE: Negative
FORMULA: C12H18F7NO4S2
SMILES: O=C(NC(C)(C)CS(=O)(=O)O)CCSCCC(F)(F)C(F)(F)C(F)(F)F
INCHIKEY: TUKWMSPJOXGNKX-UHFFFAOYSA-N
RETENTIONTIME: 127.8
CCS: 
ONTOLOGY: PFSA
COMMENT: FT-thioether
Num Peaks: 4
135.012	1000
152.039	1000
206.049	1000
436.049	1000

NAME: 4:2 Fluorotelomer thioether amido sulfonic acid
PRECURSORMZ: 486.046078497
PRECURSORTYPE: [M-H]-
IONMODE: Negative
FORMULA: C13H18F9NO4S2
SMILES: O=C(NC(C)(C)CS(=O)(=O)O)CCSCCC(F)(F)C(F)(F)C(F)(F)C(F)(F)F
INCHIKEY: VIHJAWYQCFERKN-UHFFFAOYSA-N
RETENTIONTIME: 217.4
CCS: 
ONTOLOGY: PFSA
COMMENT: FT-thioether
Num Peaks: 4
135.012	1000
152.039	1000
206.049	1000
486.046	1000

NAME: FT-thioether; C14H18F11NO4S2
PRECURSORMZ: 536.042884937
PRECURSORTYPE: [M-H]-
IONMODE: Negative
FORMULA: C14H18F11NO4S2
SMILES: O=C(NC(C)(C)CS(=O)(=O)O)CCSCCC(F)(F)C(F)(F)C(F)(F)C(F)(F)C(F)(F)F
INCHIKEY: IEEDVXQCSFOQPF-UHFFFAOYSA-N
RETENTIONTIME: 310.5
CCS: 
ONTOLOGY: PFSA
COMMENT: FT-thioether
Num Peaks: 4
135.012	1000
152.039	1000
206.049	1000
536.043	1000

NAME: 6:2 Fluorotelomer thioether amido sulfonic acid
PRECURSORMZ: 586.039691377
PRECURSORTYPE: [M-H]-
IONMODE: Negative
FORMULA: C15H18F13NO4S2
SMILES: O=C(NC(C)(C)CS(=O)(=O)O)CCSCCC(F)(F)C(F)(F)C(F)(F)C(F)(F)C(F)(F)C(F)(F)F
INCHIKEY: DKVATWZCDNHYCW-UHFFFAOYSA-N
RETENTIONTIME: 440.45
CCS: 
ONTOLOGY: PFSA
COMMENT: FT-thioether
Num Peaks: 5
135.012	1000
152.039	1000
206.049	1000
586.04	1000
586.04	1000