NAME: Perylene_2H12
SCANNUMBER: -1
RETENTIONTIME: -1
RETENTIONINDEX: 2876
PRECURSORMZ: 264.16858
PRECURSORTYPE: [M]+
IONMODE: Positive
SPECTRUMTYPE: Centroid
FORMULA: C20H12
INCHIKEY: CSHWQDPOILHKBI-AQZSQYOVSA-N
INCHI: 
SMILES: [2H]C1=C(C2=C3C(=C1[2H])C4=C(C(=C(C5=C4C(=C(C(=C5[2H])[2H])[2H])C3=C(C(=C2[2H])[2H])[2H])[2H])[2H])[2H])[2H]
AUTHORS: Price et al., RECETOX, Masaryk University (CZ)
COLLISIONENERGY: 70eV
INSTRUMENT: Q Exactive GC Orbitrap GC-MS/MS
INSTRUMENTTYPE: GC-EI-Orbitrap
IONIZATION: EI+
LICENSE: CC BY-NC
COMMENT: 
Num Peaks: 33
116.05576	29277
118.06992	49651
128.0558	37001
130.06996	78584
130.57159	17533
132.08408	65686
132.5858	12593
207.0322	39569
222.08282	13141
223.06346	20762
225.04277	18058
227.02202	26370
232.11204	30354
236.1405	22796
252.09322	8564
256.11212	41765
257.11557	8688
258.12622	21742
259.13446	11564
260.14041	248997
261.14358	51721
262.15466	33597
263.16254	63732
264.16858	829577
265.01968	18286
265.17191	176460
266.17523	18876
283.03036	10261
287.00632	11352
295.10288	26727
299.06152	33379
359.0282	67046
400.98447	17406

NAME: Perylene
SCANNUMBER: -1
RETENTIONTIME: -1
RETENTIONINDEX: 2886.9
PRECURSORMZ: 252.09323
PRECURSORTYPE: [M]+
IONMODE: Positive
SPECTRUMTYPE: Centroid
FORMULA: C20H12
INCHIKEY: CSHWQDPOILHKBI-UHFFFAOYSA-N
INCHI: 
SMILES: C1=CC2=C3C(=C1)C1=CC=CC4=C1C(=CC=C4)C3=CC=C2
AUTHORS: Price et al., RECETOX, Masaryk University (CZ)
COLLISIONENERGY: 70eV
INSTRUMENT: Q Exactive GC Orbitrap GC-MS/MS
INSTRUMENTTYPE: GC-EI-Orbitrap
IONIZATION: EI+
LICENSE: CC BY-NC
COMMENT: 
Num Peaks: 19
112.03071	49892
113.03854	87510	"Theoretical m/z 113.039125, Mass diff 0 (0 ppm), Formula C9H5"
124.03076	100146
124.53242	24923
125.03855	179254	"Theoretical m/z 125.039125, Mass diff 0 (0 ppm), Formula C10H5"
125.54019	49039
126.04636	131679
126.54804	36313
222.04645	28905
224.06192	55632
226.04175	37413
246.04646	23286
248.06204	140007
249.07072	62236	"Theoretical m/z 249.070425, Mass diff -0.001 (0 ppm), Formula C20H9"
250.07765	641789
251.07967	137600
252.09323	1955166	"Theoretical m/z 252.093354, Mass diff 0 (0.49 ppm), SMILES C1=CC=2C=CC=C3C4=CC=CC5=CC=CC(C(=C1)C23)=C54, Annotation [C20H12]+, Rule of HR False"
253.09656	402252
254.09985	39987

NAME: Phenanthrene_2H10
SCANNUMBER: -1
RETENTIONTIME: -1
RETENTIONINDEX: 1827.1
PRECURSORMZ: 188.14029
PRECURSORTYPE: [M]+
IONMODE: Positive
SPECTRUMTYPE: Centroid
FORMULA: C14H10
INCHIKEY: YNPNZTXNASCQKK-LHNTUAQVSA-N
INCHI: 
SMILES: [2H]C1=C(C(=C2C(=C1[2H])C(=C(C3=C(C(=C(C(=C32)[2H])[2H])[2H])[2H])[2H])[2H])[2H])[2H]
AUTHORS: Price et al., RECETOX, Masaryk University (CZ)
COLLISIONENERGY: 70eV
INSTRUMENT: Q Exactive GC Orbitrap GC-MS/MS
INSTRUMENTTYPE: GC-EI-Orbitrap
IONIZATION: EI+
LICENSE: CC BY-NC
COMMENT: 
Num Peaks: 17
76.02767	185421
78.0418	256858
80.05586	881271
90.04181	200162
92.06206	537968
94.06999	628791
156.08402	836513
158.09808	477819
160.11218	2421148
161.11554	310248
176.10866	308983
184.11224	2784543
185.11562	445833
186.12637	1283282
188.14029	15115275
189.1436	2312386
190.14688	151400

NAME: Phenanthrene
SCANNUMBER: -1
RETENTIONTIME: -1
RETENTIONINDEX: 1832.9
PRECURSORMZ: 178.0775
PRECURSORTYPE: [M]+
IONMODE: Positive
SPECTRUMTYPE: Centroid
FORMULA: C14H10
INCHIKEY: YNPNZTXNASCQKK-UHFFFAOYSA-N
INCHI: 
SMILES: C1=CC2=C(C=C1)C1=C(C=CC=C1)C=C2
AUTHORS: Price et al., RECETOX, Masaryk University (CZ)
COLLISIONENERGY: 70eV
INSTRUMENT: Q Exactive GC Orbitrap GC-MS/MS
INSTRUMENTTYPE: GC-EI-Orbitrap
IONIZATION: EI+
LICENSE: CC BY-NC
COMMENT: 
Num Peaks: 19
74.01508	137808	"Theoretical m/z 74.01565, Mass diff 0 (0 ppm), Formula C6H2"
75.02295	278714	"Theoretical m/z 75.023475, Mass diff 0 (0 ppm), Formula C6H3"
76.03075	608417	"Theoretical m/z 76.0313, Mass diff 0 (0 ppm), Formula C6H4"
87.02295	304266	"Theoretical m/z 87.023475, Mass diff 0 (0 ppm), Formula C7H3"
88.03076	497050	"Theoretical m/z 88.0313, Mass diff 0 (0 ppm), Formula C7H4"
89.03857	441168	"Theoretical m/z 89.039125, Mass diff 0 (0 ppm), Formula C7H5"
98.01511	150478
150.04633	868927
151.05415	546351	"Theoretical m/z 151.054775, Mass diff 0 (0 ppm), Formula C12H7"
152.0619	2275502
153.06528	276320
169.06468	272559
174.04636	365846
175.05423	272039	"Theoretical m/z 175.054775, Mass diff 0 (0 ppm), Formula C14H7"
176.062	3370523	"Theoretical m/z 176.0626, Mass diff 0 (0 ppm), Formula C14H8"
177.06982	1751846	"Theoretical m/z 177.070425, Mass diff 0 (0 ppm), Formula C14H9"
178.0775	13724432	"Theoretical m/z 178.077698, Mass diff 0 (1.11 ppm), SMILES C=1C=CC2=C(C1)C=CC=3C=CC=CC32, Annotation [C14H10]+, Rule of HR False"
179.08078	2250119
180.08412	138203

NAME: Anthracene
SCANNUMBER: -1
RETENTIONTIME: -1
RETENTIONINDEX: 1844.4
PRECURSORMZ: 178.07754
PRECURSORTYPE: [M]+
IONMODE: Positive
SPECTRUMTYPE: Centroid
FORMULA: C14H10
INCHIKEY: MWPLVEDNUUSJAV-UHFFFAOYSA-N
INCHI: 
SMILES: C1=CC2=CC3=C(C=CC=C3)C=C2C=C1
AUTHORS: Price et al., RECETOX, Masaryk University (CZ)
COLLISIONENERGY: 70eV
INSTRUMENT: Q Exactive GC Orbitrap GC-MS/MS
INSTRUMENTTYPE: GC-EI-Orbitrap
IONIZATION: EI+
LICENSE: CC BY-NC
COMMENT: 
Num Peaks: 21
74.0151	117371	"Theoretical m/z 74.01565, Mass diff 0 (0 ppm), Formula C6H2"
75.02296	245305	"Theoretical m/z 75.023475, Mass diff 0 (0 ppm), Formula C6H3"
76.03077	632686	"Theoretical m/z 76.0313, Mass diff 0 (0 ppm), Formula C6H4"
87.02297	236214	"Theoretical m/z 87.023475, Mass diff 0 (0 ppm), Formula C7H3"
88.03078	347832	"Theoretical m/z 88.0313, Mass diff 0 (0 ppm), Formula C7H4"
89.0386	507288	"Theoretical m/z 89.039125, Mass diff 0 (0 ppm), Formula C7H5"
91.05425	130861	"Theoretical m/z 91.054775, Mass diff 0 (0 ppm), Formula C7H7"
126.04636	128356
149.04478	126331
150.04637	641829
151.05415	403195	"Theoretical m/z 151.054775, Mass diff 0 (0 ppm), Formula C12H7"
152.06195	1369833
153.06534	175290
169.06471	228827
174.04639	255716
175.05423	198784	"Theoretical m/z 175.054775, Mass diff 0 (0 ppm), Formula C14H7"
176.06204	2563053	"Theoretical m/z 176.0626, Mass diff 0 (0 ppm), Formula C14H8"
177.06984	1182037	"Theoretical m/z 177.070425, Mass diff 0 (0 ppm), Formula C14H9"
178.07754	11002398	"Theoretical m/z 178.077698, Mass diff 0 (0.89 ppm), SMILES C=1C=CC=2C=C3C=CC=CC3=CC2C1, Annotation [C14H10]+, Rule of HR False"
179.08081	1778803
180.08418	132922

NAME: Acenaphthylene
SCANNUMBER: -1
RETENTIONTIME: -1
RETENTIONINDEX: 1501
PRECURSORMZ: 152.06192
PRECURSORTYPE: [M]+
IONMODE: Positive
SPECTRUMTYPE: Centroid
FORMULA: C12H8
INCHIKEY: HXGDTGSAIMULJN-UHFFFAOYSA-N
INCHI: 
SMILES: C1=CC2=C3C1=CC=CC3=CC=C2
AUTHORS: Price et al., RECETOX, Masaryk University (CZ)
COLLISIONENERGY: 70eV
INSTRUMENT: Q Exactive GC Orbitrap GC-MS/MS
INSTRUMENTTYPE: GC-EI-Orbitrap
IONIZATION: EI+
LICENSE: CC BY-NC
COMMENT: 
Num Peaks: 19
74.01511	482670	"Theoretical m/z 74.01565, Mass diff 0 (0 ppm), Formula C6H2"
75.02295	550365	"Theoretical m/z 75.023475, Mass diff 0 (0 ppm), Formula C6H3"
76.03077	725415	"Theoretical m/z 76.0313, Mass diff 0 (0 ppm), Formula C6H4"
77.03858	588033	"Theoretical m/z 77.039125, Mass diff 0 (0 ppm), Formula C6H5"
86.01511	256400	"Theoretical m/z 86.01565, Mass diff 0 (0 ppm), Formula C7H2"
87.02298	375648	"Theoretical m/z 87.023475, Mass diff 0 (0 ppm), Formula C7H3"
91.05425	2992018	"Theoretical m/z 91.054775, Mass diff 0 (0 ppm), Formula C7H7"
92.06201	1652944	"Theoretical m/z 92.0626, Mass diff 0 (0 ppm), Formula C7H8"
93.06988	906934	"Theoretical m/z 93.070425, Mass diff 0 (0 ppm), Formula C7H9"
98.01514	483853
99.02294	312809	"Theoretical m/z 99.023475, Mass diff 0 (0 ppm), Formula C8H3"
126.04639	589350
149.03862	414697	"Theoretical m/z 149.039125, Mass diff 0 (0 ppm), Formula C12H5"
150.04639	3781501
151.05417	3142749	"Theoretical m/z 151.054775, Mass diff 0 (0 ppm), Formula C12H7"
152.06192	21881232	"Theoretical m/z 152.062058, Mass diff 0 (0.91 ppm), SMILES C=1C=C2C=CC=C3C=CC(C1)=C23, Annotation [C12H8]+, Rule of HR False"
153.06525	2807302
169.0647	1124323
179.06026	753608

NAME: Acenaphthene
SCANNUMBER: -1
RETENTIONTIME: -1
RETENTIONINDEX: 1528.3
PRECURSORMZ: 154.07741
PRECURSORTYPE: [M]+
IONMODE: Positive
SPECTRUMTYPE: Centroid
FORMULA: C12H10
INCHIKEY: CWRYPZZKDGJXCA-UHFFFAOYSA-N
INCHI: 
SMILES: C1CC2=C3C1=CC=CC3=CC=C2
AUTHORS: Price et al., RECETOX, Masaryk University (CZ)
COLLISIONENERGY: 70eV
INSTRUMENT: Q Exactive GC Orbitrap GC-MS/MS
INSTRUMENTTYPE: GC-EI-Orbitrap
IONIZATION: EI+
LICENSE: CC BY-NC
COMMENT: 
Num Peaks: 18
74.01509	295758	"Theoretical m/z 74.01565, Mass diff 0 (0 ppm), Formula C6H2"
75.02295	509657	"Theoretical m/z 75.023475, Mass diff 0 (0 ppm), Formula C6H3"
76.03075	1635356	"Theoretical m/z 76.0313, Mass diff 0 (0 ppm), Formula C6H4"
76.53242	205544
86.01508	191522	"Theoretical m/z 86.01565, Mass diff 0 (0 ppm), Formula C7H2"
87.02293	327509	"Theoretical m/z 87.023475, Mass diff 0 (0 ppm), Formula C7H3"
98.01508	227977
126.04635	562426
150.04636	1619866
151.05418	1937000	"Theoretical m/z 151.054775, Mass diff 0 (0 ppm), Formula C12H7"
152.06194	9114349
153.06969	18918992	"Theoretical m/z 153.070425, Mass diff 0 (0 ppm), Formula C12H9"
154.07741	12248891	"Theoretical m/z 154.077698, Mass diff 0 (1.87 ppm), SMILES C=1C=C2C=CC=C3C2=C(C1)CC3, Annotation [C12H10]+, Rule of HR False"
155.0808	1483779
165.06972	206834
167.08536	417705
169.06462	800183
179.0602	516826

NAME: Fluoranthene
SCANNUMBER: -1
RETENTIONTIME: -1
RETENTIONINDEX: 2102.7
PRECURSORMZ: 202.07756
PRECURSORTYPE: [M]+
IONMODE: Positive
SPECTRUMTYPE: Centroid
FORMULA: C16H10
INCHIKEY: GVEPBJHOBDJJJI-UHFFFAOYSA-N
INCHI: 
SMILES: C1=CC2=C(C=C1)C1=C3C2=CC=CC3=CC=C1
AUTHORS: Price et al., RECETOX, Masaryk University (CZ)
COLLISIONENERGY: 70eV
INSTRUMENT: Q Exactive GC Orbitrap GC-MS/MS
INSTRUMENTTYPE: GC-EI-Orbitrap
IONIZATION: EI+
LICENSE: CC BY-NC
COMMENT: 
Num Peaks: 17
75.02299	112456	"Theoretical m/z 75.023475, Mass diff 0 (0 ppm), Formula C6H3"
87.02298	183640	"Theoretical m/z 87.023475, Mass diff 0 (0 ppm), Formula C7H3"
88.03079	367434	"Theoretical m/z 88.0313, Mass diff 0 (0 ppm), Formula C7H4"
99.02296	124952	"Theoretical m/z 99.023475, Mass diff 0 (0 ppm), Formula C8H3"
100.03078	376079
101.03863	381288	"Theoretical m/z 101.039125, Mass diff 0 (0 ppm), Formula C8H5"
150.04642	86059
174.04634	246963
176.06194	141676	"Theoretical m/z 176.0626, Mass diff 0 (0 ppm), Formula C14H8"
198.0464	244370
199.05429	285767	"Theoretical m/z 199.054775, Mass diff 0 (0 ppm), Formula C16H7"
200.06207	1958890
201.06982	1103710	"Theoretical m/z 201.070425, Mass diff 0 (0 ppm), Formula C16H9"
202.07756	8104188	"Theoretical m/z 202.077698, Mass diff 0 (0.69 ppm), SMILES C1=CC=C2C(=C1)C3=CC=CC4=CC=CC2=C43, Annotation [C16H10]+, Rule of HR False"
203.08084	1377015
204.08421	98067
219.08043	186623

NAME: Pyrene
SCANNUMBER: -1
RETENTIONTIME: -1
RETENTIONINDEX: 2154.5
PRECURSORMZ: 202.07759
PRECURSORTYPE: [M]+
IONMODE: Positive
SPECTRUMTYPE: Centroid
FORMULA: C16H10
INCHIKEY: BBEAQIROQSPTKN-UHFFFAOYSA-N
INCHI: 
SMILES: C1=CC2=C3C(C=CC4=CC=CC(C=C2)=C34)=C1
AUTHORS: Price et al., RECETOX, Masaryk University (CZ)
COLLISIONENERGY: 70eV
INSTRUMENT: Q Exactive GC Orbitrap GC-MS/MS
INSTRUMENTTYPE: GC-EI-Orbitrap
IONIZATION: EI+
LICENSE: CC BY-NC
COMMENT: 
Num Peaks: 16
87.02299	147113	"Theoretical m/z 87.023475, Mass diff 0 (0 ppm), Formula C7H3"
88.0308	305149	"Theoretical m/z 88.0313, Mass diff 0 (0 ppm), Formula C7H4"
99.02298	137042	"Theoretical m/z 99.023475, Mass diff 0 (0 ppm), Formula C8H3"
100.0308	508914
101.03864	472094	"Theoretical m/z 101.039125, Mass diff 0 (0 ppm), Formula C8H5"
101.54032	82430
150.04637	80741
174.04631	212706
198.04643	262925
199.05429	295144	"Theoretical m/z 199.054775, Mass diff 0 (0 ppm), Formula C16H7"
200.06209	1960712
201.06982	1270466	"Theoretical m/z 201.070425, Mass diff 0 (0 ppm), Formula C16H9"
202.07759	7974712	"Theoretical m/z 202.077698, Mass diff 0 (0.54 ppm), SMILES C=1C=C2C=CC3=CC=CC=4C=CC(C1)=C2C34, Annotation [C16H10]+, Rule of HR False"
203.08086	1335645
204.0843	121774
219.08044	182944

NAME: para-Terphenyl
SCANNUMBER: -1
RETENTIONTIME: -1
RETENTIONINDEX: 2207.5
PRECURSORMZ: 230.10886
PRECURSORTYPE: [M]+
IONMODE: Positive
SPECTRUMTYPE: Centroid
FORMULA: C18H14
INCHIKEY: XJKSTNDFUHDPQJ-UHFFFAOYSA-N
INCHI: 
SMILES: C1=CC=C(C=C1)C2=CC=C(C=C2)C3=CC=CC=C3
AUTHORS: Price et al., RECETOX, Masaryk University (CZ)
COLLISIONENERGY: 70eV
INSTRUMENT: Q Exactive GC Orbitrap GC-MS/MS
INSTRUMENTTYPE: GC-EI-Orbitrap
IONIZATION: EI+
LICENSE: CC BY-NC
COMMENT: 
Num Peaks: 25
88.03077	233962	"Theoretical m/z 88.0313, Mass diff 0 (0 ppm), Formula C7H4"
101.03861	353544	"Theoretical m/z 101.039125, Mass diff 0 (0 ppm), Formula C8H5"
113.03854	437845	"Theoretical m/z 113.039125, Mass diff 0 (0 ppm), Formula C9H5"
115.05423	690291	"Theoretical m/z 115.054775, Mass diff 0 (0 ppm), Formula C9H7"
128.062	293046	"Theoretical m/z 128.0626, Mass diff 0 (0 ppm), Formula C10H8"
151.05412	266397	"Theoretical m/z 151.054775, Mass diff 0 (0 ppm), Formula C12H7"
152.06195	961184
153.06976	409346	"Theoretical m/z 153.069873, Mass diff 0 (0.74 ppm), SMILES *C=1C=CC(=CC1)C=2C=CC=CC2, Annotation [C12H10-H]+, Rule of HR True"
176.06192	232793	"Theoretical m/z 176.0626, Mass diff 0 (0 ppm), Formula C14H8"
189.06972	408734	"Theoretical m/z 189.070425, Mass diff 0 (0 ppm), Formula C15H9"
200.0619	342984
201.06986	238974	"Theoretical m/z 201.070425, Mass diff 0 (0 ppm), Formula C16H9"
202.07758	1292332
203.08093	374439
213.06973	256631	"Theoretical m/z 213.070425, Mass diff 0 (0 ppm), Formula C17H9"
215.08548	1220866	"Theoretical m/z 215.086075, Mass diff 0 (0 ppm), Formula C17H11"
216.08881	217320
224.062	181393
226.07771	1503774
227.08588	1198323	"Theoretical m/z 227.086075, Mass diff 0 (0 ppm), Formula C18H11"
228.09344	2885510
229.10123	1791323
230.10886	17890056	"Theoretical m/z 230.108994, Mass diff 0 (0.58 ppm), SMILES C=1C=CC(=CC1)C=2C=CC(=CC2)C=3C=CC=CC3, Annotation [C18H14]+, Rule of HR False"
231.11214	3536976
232.11542	320231